LAMMPS data file converted from PSI format

1728 atoms
2 atom types

-5.35250500 5.35250500 xlo xhi
-5.92865500 5.92865500 ylo yhi
-5.23809500 5.23809500 zlo zhi

Atoms

1 1 -3.4384568000 5.6904821000 -1.1577374000
2 2 -0.1226192400 -0.2157859800 0.2463911400
3 2 -0.7411256200 -0.0511281490 -1.4213013000
4 2 4.8722015000 -2.4668317000 4.9908916000
5 2 4.4161339000 -0.2296524100 -0.7586602900
6 2 -3.1608689000 -1.2788704000 0.5357311800
7 1 -0.9953147800 3.1628306000 1.5349080000
8 1 -5.2540610000 -0.3551942000 5.2252374000
9 2 1.5920590000 3.4347072000 -5.0889215000
10 1 3.7727035000 4.8709175000 1.5347477000
11 2 -4.9332148000 4.0731161000 0.2954564400
12 2 0.6376502300 -3.7134833000 -0.8708379300
13 1 -1.5308633000 -1.6146983000 -1.9743945000
14 2 4.7720618000 -1.5479716000 -0.7828865000
15 2 -4.9896328000 -4.9511645000 -5.1596689000
16 2 -2.7460931000 4.6783935000 -4.6761999000
17 2 1.5161421000 -2.2566659000 -3.1896024000
18 2 1.8388968000 4.8876279000 2.6342025000
19 1 -4.7901248000 2.8454601000 4.2873662000
20 1 0.1844738200 5.5011556000 2.5123261000
21 1 -2.8067689000 4.9857735000 0.3422069900
22 2 1.1958898000 1.1136667000 4.6013475000
23 2 4.7174863000 5.0926209000 2.9302214000
24 2 -2.8403933000 -0.9341386500 -4.8961382000
25 1 0.1112290900 4.6050485000 4.9696819000
26 1 -1.5383874000 -0.1162052200 -4.0249207000
27 1 -5.0517750000 -5.4798086000 -0.0679812740
28 1 2.1354121000 3.2419782000 0.6191699300
29 2 1.5157245000 4.1374760000 0.8626590400
30 2 -1.6986604000 1.6786904000 0.0841546600
31 1 -3.1279907000 -3.4033592000 2.0586775000
32 2 3.3758096000 4.3804093000 -0.2972451000
33 1 0.2996360800 0.6443590200 3.0870539000
34 2 2.5511275000 4.3222219000 -0.5385622700
35 1 -5.2883195000 -4.8146602000 4.3871212000
36 2 -1.0684173000 -4.0821563000 -0.1277146100
37 1 -2.3463914000 -5.8282466000 0.6780353500
38 1 -5.3509738000 1.0470798000 3.9432943000
39 2 2.0183191000 1.8855679000 -4.8080661000
40 1 4.0719771000 -4.1189241000 -3.8770796000
41 1 2.9253534000 -1.3673262000 2.9159460000
42 1 2.1560837000 1.0036728000 5.1608424000
43 1 3.5024407000 -5.8612484000 -0.1337736600
44 1 -3.2643235000 -3.8865392000 1.0749694000
45 1 5.0998912000 -3.8941285000 -4.2731713000
46 1 0.1832736900 -3.5088698000 -0.0085969539
47 1 -2.1011676000 1.7245521000 0.9801623400
48 2 5.1966350000 -3.1666063000 -5.0054243000
49 1 -2.6778178000 -0.1179891100 -2.6711128000
50 1 -2.0049786000 -1.0154508000 -1.1341154000
51 2 -5.3345302000 -2.2185979000 -0.7421103500
52 2 -1.4211599000 -4.6882405000 -0.7331747100
53 1 -3.6350052000 3.3442952000 4.7954922000
54 1 -2.1345085000 -3.3034697000 -4.1614768000
55 1 -2.8001205000 -5.3935591000 1.6032284000
56 1 -4.7371608000 5.4358201000 -5.1353777000
57 2 -4.7048802000 0.2108633700 -1.0081507000
58 1 4.5837654000 3.3619454000 -4.7664136000
59 2 3.5513651000 -4.8571955000 -0.1670110400
60 2 -2.3328059000 -1.0233568000 0.7697539200
61 2 3.2647542000 5.6603599000 1.8451475000
62 1 -1.0073179000 2.9133337000 -1.8543122000
63 1 -3.9132587000 -2.2991499000 3.5203784000
64 2 -2.1375727000 4.4305719000 2.6335648000
65 1 -4.9775615000 5.0770679000 -1.7737039000
66 2 -3.2351261000 2.3263597000 0.4347415800
67 1 0.4302660700 0.3403381800 4.2456799000
68 2 -2.7907304000 2.4336141000 -0.3476875100
69 1 -0.1156760100 1.8049371000 -2.9394470000
70 1 -0.7952234900 -2.9402853000 -0.3359975900
71 2 0.2140706900 1.9482964000 -2.0568387000
72 1 -2.9634324000 5.3469581000 5.0421176000
73 1 -4.4318812000 -0.2642026700 2.5321454000
74 2 -2.2005765000 3.9527186000 1.8529739000
75 2 0.9352456200 -0.8787119500 2.9851691000
76 2 2.3306470000 -4.7404511000 2.9022905000
77 1 0.0083694002 4.6850303000 1.3062290000
78 1 -2.6317815000 -0.1090627100 -1.4704570000
79 1 -0.4752301500 1.2145662000 -1.9525452000
80 2 -1.2089228000 0.9097113700 -2.5733899000
81 1 5.1420752000 -1.4975745000 3.9002875000
82 1 -1.5467386000 -3.5021454000 -0.8298452300
83 1 2.5758082000 -4.9333873000 3.8756339000
84 1 -4.6927348000 -0.1090934000 -1.9585599000
85 2 4.2059849000 4.4173984000 3.2715526000
86 1 -2.7093704000 -2.6829259000 -4.8961652000
87 2 -2.4723562000 2.4127420000 -4.8419986000
88 1 -1.8930184000 4.1760815000 -0.5917554600
89 2 4.9278968000 5.5227143000 3.7368743000
90 2 3.3759023000 2.6343522000 3.1067302000
91 2 -3.5939093000 5.0776830000 -0.3023532700
92 1 -2.0816082000 0.7608915100 -1.0868812000
93 2 -4.7566235000 -2.8985386000 -0.4996501900
94 2 -1.2164449000 3.6913559000 5.2194648000
95 1 -1.7691333000 0.6592519400 3.2308202000
96 2 0.1120323900 -3.4115451000 1.8269005000
97 1 1.1288615000 -1.3183511000 -3.2186212000
98 2 2.1246903000 -2.1961103000 0.8196046800
99 1 0.1505970500 -1.6837143000 -0.8867339500
100 2 -0.5253176700 0.3101292400 -4.2786375000
101 1 -2.9889228000 -0.8193685200 -3.8967570000
102 2 4.8152927000 2.3418401000 1.0059576000
103 2 -4.5146580000 -4.3854681000 -2.0704821000
104 1 4.3267364000 -1.5533494000 -4.0968796000
105 1 -0.8818303500 -5.2658228000 -2.5662912000
106 2 4.4495042000 2.1260761000 -0.5022391200
107 2 2.7825695000 2.0402746000 -2.0803120000
108 1 1.7606835000 -1.6759565000 4.0408300000
109 1 -3.1442012000 -2.9795272000 3.7678236000
110 1 1.4785438000 5.0965299000 -4.7217489000
111 1 -0.6048285400 -5.6636309000 4.5774236000
112 1 3.0270118000 -2.8635198000 4.4647544000
113 2 2.1970232000 -0.9081534300 -2.2633444000
114 1 2.9751670000 -2.8325972000 -3.7083290000
115 2 5.1873360000 1.8517053000 -3.9175152000
116 2 -3.0807513000 -0.7098187800 1.2323938000
117 2 4.0034997000 4.7890550000 4.3463280000
118 1 -0.5579719100 0.7195606200 -0.0820894810
119 1 -1.5549692000 -1.2302652000 5.0775531000
120 1 -1.0982518000 1.4712049000 -3.3493822000
121 2 -1.1257733000 -0.8115449900 -1.6409283000
122 2 2.5049254000 5.8214978000 -2.5508182000
123 1 3.8817269000 -4.3083832000 2.9313091000
124 1 1.9030859000 -0.7693252200 -1.2774881000
125 2 -1.5234891000 -5.7352436000 4.9461710000
126 2 -2.7312519000 5.1182869000 3.5393255000
127 1 -0.5428512000 5.3727084000 -5.1763594000
128 1 0.3809622500 5.5223739000 -1.3894309000
129 1 2.3330363000 2.7305008000 5.1159356000
130 1 -5.1183379000 2.8283055000 3.2676886000
131 2 -4.5938086000 3.3624514000 1.0969020000
132 2 -1.2422690000 5.3483056000 4.6045246000
133 2 5.3142565000 2.8009034000 -5.2013795000
134 2 4.7586533000 -2.4798565000 -2.9286709000
135 2 -1.7184105000 0.5089055200 1.2261570000
136 2 -0.6649551200 3.4908703000 3.9073669000
137 2 -5.3430123000 2.1381519000 4.6634439000
138 1 2.8280851000 -2.5940846000 -0.9813287900
139 1 -2.8887007000 0.6843362500 2.3908018000
140 2 -1.9043090000 4.8764824000 3.3839380000
141 2 2.5162184000 -5.6051408000 3.0645793000
142 1 -3.7669913000 5.0642682000 -4.8367051000
143 1 1.2002459000 -1.3492382000 2.1316809000
144 1 4.9961666000 -0.7998197600 -1.3605995000
145 2 4.8660565000 2.4746737000 -4.4636244000
146 1 2.6955781000 -3.8738089000 1.5722297000
147 2 -0.8006491800 -0.6554652800 0.7019930100
148 1 -2.8478764000 -2.0978252000 0.9967468400
149 2 -3.8186929000 -0.0679770760 4.4847825000
150 1 0.2355358500 1.4112961000 3.9747065000
151 1 -4.4472886000 -1.1855682000 1.9357345000
152 1 4.9434361000 1.2997894000 4.8912331000
153 2 0.0546462290 -0.2865340400 2.9177914000
154 2 -4.4909318000 3.3034009000 0.2357416100
155 2 -4.5288813000 1.0124677000 0.3817797800
156 2 -5.2952374000 1.4970433000 2.1609680000
157 1 4.6585303000 -4.2864575000 3.6886833000
158 2 -0.2593712900 -5.8615155000 -0.7602721300
159 1 -4.7443171000 -3.7715344000 -3.5861754000
160 1 -2.0248523000 -0.3342364300 -5.0075227000
161 1 1.5029931000 2.4966780000 -3.2061339000
162 2 -4.8171990000 -2.0771500000 3.7662406000
163 1 3.8490880000 4.7276782000 -2.6382631000
164 1 1.9048631000 1.5367229000 3.0741535000
165 1 4.6820269000 -2.7010743000 -0.2004608900
166 2 -0.2991051000 1.7194518000 4.9110973000
167 1 -2.0517880000 -1.1333192000 -4.3590243000
168 2 0.7165507600 4.0676335000 3.9520379000
169 2 -2.4322204000 4.0840649000 0.2200718100
170 2 0.3503190900 -4.1228860000 4.8530776000
171 2 2.7595024000 2.2864286000 1.2404008000
172 2 -0.9223184400 2.8993339000 -4.9433844000
173 2 -1.8243511000 -2.8889710000 2.9248766000
174 1 -2.1034030000 1.7957562000 -0.8266746100
175 1 3.6052893000 4.2296599000 0.7020836700
176 1 3.4375944000 -4.6361217000 1.4941153000
177 1 3.8662456000 2.8652020000 -0.8628261600
178 2 -0.8994396200 4.1733349000 1.2979733000
179 2 1.6994621000 -2.1694134000 2.3846580000
180 1 0.6081413500 5.7043508000 -0.3769988200
181 1 5.1736161000 0.0675335150 -2.5677869000
182 2 -0.1552919200 1.3681147000 0.5375324600
183 1 4.8930946000 3.4965738000 -1.2974547000
184 1 -3.6662891000 3.4682667000 2.1613239000
185 1 2.2893315000 5.6307901000 2.0824285000
186 1 -1.5180877000 -1.3933587000 3.1113208000
187 1 -3.6929649000 -3.3732577000 -4.9357663000
188 1 3.3982082000 0.8876387000 -3.1511975000
189 2 5.2432045000 -2.1692839000 2.3215058000
190 1 -1.7391988000 -4.9842407000 -3.2317974000
191 1 0.1025718600 -4.6590219000 -4.8533996000
192 1 4.7612357000 -1.4464236000 2.8330619000
193 2 1.0362176000 -2.9515604000 -1.1551240000
194 1 -4.4668416000 -2.6979561000 1.1124919000
195 1 3.7872516000 -1.7950558000 2.4793119000
196 1 -1.8668513000 0.5404535100 4.9038318000
197 2 1.9300465000 -4.1091739000 -1.6133522000
198 2 -5.1903196000 3.6756722000 3.7508524000
199 1 -2.3508274000 3.8018910000 -4.0155181000
200 1 2.3530062000 -3.5501492000 4.9990585000
201 2 -0.7233875500 -3.4484446000 0.5188378800
202 2 -0.6226049800 -2.2165844000 -1.0016945000
203 2 0.8666491200 -2.1640866000 -5.1405042000
204 1 4.4384332000 -2.6463479000 0.8177901500
205 2 2.5146937000 -0.8830845100 -3.9526789000
206 2 -2.5514138000 3.2850577000 -0.1571932300
207 1 5.2369091000 -0.4826940800 4.2259644000
208 2 2.5599887000 3.0643982000 -1.2005266000
209 1 1.4310462000 -0.0917125390 -0.5767959900
210 1 4.1179956000 0.6527174200 1.6504341000
211 2 4.3206122000 -1.1382686000 -2.2386123000
212 1 -1.2520707000 1.0022204000 -4.2926441000
213 2 0.8475938600 1.4117674000 0.2719761400
214 2 -3.2027946000 -0.0956204450 3.7429548000
215 1 -2.0608130000 -5.3018445000 -0.2046477400
216 1 3.2828015000 -1.0463964000 1.9248881000
217 2 -4.9856287000 2.5363612000 0.7208658000
218 2 -1.3066866000 -5.7395220000 -1.8208705000
219 1 -0.6726904000 5.3640282000 1.8134825000
220 2 4.8506792000 0.2134446600 -3.5130894000
221 2 -4.2421720000 4.9344148000 -3.3527884000
222 2 2.5663593000 5.3582750000 2.9832242000
223 2 4.3174590000 -0.1423752200 4.5120117000
224 2 0.6645213400 -4.9513705000 2.4268731000
225 1 0.3759738300 0.5768774300 0.5591719200
226 2 -0.3338545600 4.2475486000 0.5211140500
227 2 -4.5829670000 -1.7286558000 1.0532577000
228 2 0.3451643900 -0.4643135000 3.7326943000
229 1 2.0096539000 1.1186073000 0.5162405900
230 2 3.0034834000 -5.7703099000 -3.3117699000
231 1 -1.8369591000 3.1812575000 -4.6826232000
232 1 3.1067570000 4.4364929000 -4.6307031000
233 2 -4.3904705000 2.7118382000 -1.5452542000
234 2 2.8384748000 -4.6932047000 -4.4509698000
235 1 -4.2176738000 3.0757164000 -0.6577980600
236 1 4.0521454000 -0.2953913800 1.2123804000
237 2 5.3452923000 -0.6283185500 -3.3136733000
238 2 -4.3556257000 4.3420251000 -1.5813177000
239 1 4.5963798000 -5.3752993000 3.9997368000
240 1 3.6943339000 -3.5905720000 1.1592170000
241 2 -2.4388949000 5.2969152000 2.6986894000
242 1 -3.6130782000 -4.3408558000 1.9474178000
243 2 4.5689702000 -0.9572065400 4.8144477000
244 2 -2.5303324000 -0.7628422600 3.8919241000
245 2 -2.0974816000 -5.1380399000 3.1322309000
246 2 0.4787639600 -3.7205716000 -4.7374309000
247 1 -5.1082932000 4.0852559000 1.6769890000
248 2 -3.5329722000 0.4511932500 -3.9201869000
249 2 0.4787802400 1.1152952000 -2.2168628000
250 2 -3.5548560000 4.6097786000 -1.1259696000
251 2 0.6874397200 1.9472319000 -3.4947450000
252 2 3.0700413000 -2.0436147000 1.7839436000
253 1 3.5991164000 -2.1993539000 -4.4810734000
254 2 -1.9757298000 2.8083565000 1.2246932000
255 1 1.4455927000 -0.5345906600 1.5234567000
256 1 1.2302485000 2.1820525000 0.7707168400
257 1 -1.9572702000 3.5167631000 -2.0208427000
258 2 5.0588797000 -2.1858378000 -3.7728943000
259 2 2.3229159000 -2.5999862000 5.1661395000
260 1 -4.4440152000 -0.3848701400 -2.9671890000
261 1 -3.2611219000 -3.4221147000 -1.6395715000
262 2 1.2989509000 4.2288094000 -3.6789701000
263 1 -3.8974033000 -1.3489746000 -1.3867697000
264 2 2.0554641000 -1.4649096000 0.3054213700
265 2 -0.8654038800 -5.1629889000 -5.1301978000
266 1 -3.1040574000 -0.0030936908 -4.6637008000
267 2 -2.5217272000 5.2702160000 1.2538177000
268 2 2.9621965000 0.6310588800 -1.3799274000
269 1 -4.5293248000 -5.0095864000 1.8991274000
270 1 -5.3306726000 4.8668878000 -2.7245115000
271 2 5.2740834000 0.9139838900 -3.8830262000
272 1 -3.9262878000 2.0324825000 -4.5294931000
273 1 4.8437125000 4.8469340000 1.9652074000
274 2 2.8589100000 1.3379159000 0.9247508800
275 1 1.7550347000 -0.3614392900 2.5726709000
276 1 -3.5696217000 -5.3301500000 2.3504288000
277 2 -0.5523836900 -5.2320800000 -4.3133063000
278 2 4.7453618000 3.2056068000 -2.2310284000
279 2 -0.8106995100 -3.8853900000 -1.7267491000
280 2 -4.0832975000 -5.0224518000 5.0134744000
281 2 -1.4903105000 4.4898756000 4.8323595000
282 1 3.4184608000 -0.0744974440 5.0225749000
283 2 -3.7960696000 4.9303792000 0.6013739300
284 2 3.0749216000 4.2303316000 -2.9024334000
285 2 1.4979507000 3.8956313000 -1.7664140000
286 2 4.1354961000 -3.0443228000 -2.5710704000
287 2 1.0311314000 -0.4292104300 -3.8318740000
288 2 0.7611999600 -5.4016487000 -4.6686852000
289 2 -0.9831244700 -2.7276619000 -2.8927210000
290 1 -0.0483305050 -2.2815691000 -2.6505959000
291 1 -5.2665316000 -4.5106820000 1.3021164000
292 1 -5.0095188000 3.2995392000 -2.8481146000
293 2 2.5476504000 -4.7506510000 1.0461440000
294 1 5.0559163000 4.5586121000 3.7851179000
295 2 -2.4535783000 -2.3053622000 4.7295013000
296 2 1.9305153000 -5.2447710000 1.4780994000
297 2 0.8049623700 -3.9182464000 3.3464183000
298 1 1.2078383000 -1.1797834000 -2.0437797000
299 1 1.0093402000 5.0770342000 3.1349760000
300 1 4.4090651000 1.3672903000 2.3755462000
301 2 0.6506871200 -2.4822979000 -3.3400953000
302 1 -2.6567750000 1.5616986000 0.1023217400
303 1 4.5549255000 -2.6502912000 -4.4897838000
304 2 -2.9165214000 -4.8282371000 -0.2552370700
305 2 -2.2136950000 1.0395676000 -2.8412020000
306 1 -1.3507688000 2.5116180000 0.4774160500
307 2 -1.2649773000 -0.6072432700 2.5316249000
308 1 -2.0290186000 1.9871330000 -3.0396003000
309 2 -4.0172715000 1.9798226000 2.7488431000
310 2 0.8237642000 1.1295145000 -3.9895696000
311 2 -2.6568337000 -3.0002960000 1.2838308000
312 1 -0.6222470600 -2.8115024000 1.4800837000
313 1 1.8855269000 4.6938409000 1.6592153000
314 2 3.1412658000 -3.1430820000 3.5135429000
315 1 -2.1595671000 -3.7501930000 2.5875708000
316 2 3.5206442000 -2.3688856000 3.2119683000
317 2 0.5588251800 -2.5843729000 -0.0448276980
318 2 -4.9003222000 -5.6599311000 4.7534656000
319 1 3.8123394000 -5.3965233000 4.7401861000
320 1 1.2560303000 -4.0041733000 5.2112219000
321 1 -3.8945313000 3.1191790000 -4.6458841000
322 1 1.7149586000 -5.5301074000 -2.4236025000
323 2 0.7587530000 4.9334184000 -3.9960018000
324 2 2.2329538000 5.6820206000 -3.4223285000
325 1 -1.1357427000 -0.9480961200 4.0962464000
326 2 0.2299757300 -5.0908782000 -3.9731597000
327 1 -3.6210866000 2.4651694000 -2.1690711000
328 2 -2.4990088000 -1.4596838000 3.3237907000
329 2 5.2064454000 -2.3173177000 3.2061823000
330 1 -4.6937624000 1.2118330000 5.1536442000
331 1 -3.0206000000 5.9158624000 -0.1393410700
332 1 0.7501317300 4.7171950000 2.1038912000
333 2 4.1628358000 -3.4131961000 0.2880194600
334 1 -2.4972285000 -1.4025160000 1.6881326000
335 2 -2.0488087000 -1.8050077000 -0.5436341600
336 1 0.4790471200 -0.6436975800 4.7371148000
337 1 -3.6598889000 -4.8255634000 -4.3471125000
338 1 -4.1017970000 -0.4163813000 3.5526903000
339 2 -2.4567589000 -3.5183645000 -2.3851394000
340 2 -3.9497852000 2.5799325000 -3.7598583000
341 2 4.9538300000 1.8433662000 -3.0737986000
342 2 -4.4099848000 -2.0999470000 -0.8903160100
343 2 -3.7745187000 1.0776060000 2.7473752000
344 1 0.2884975300 0.2586810300 -3.6310741000
345 2 -3.7056909000 1.6079393000 3.4958155000
346 2 -3.2040831000 -4.4780323000 -3.4946196000
347 2 2.6139477000 -4.3266906000 -2.2670691000
348 2 -1.9101444000 2.5984396000 -0.2941387200
349 1 0.3360199700 1.3872878000 -1.2595185000
350 1 3.6553513000 -5.1312852000 -3.9239518000
351 1 -5.3362530000 -4.0472324000 5.1176228000
352 1 -0.1302873700 -5.2464440000 2.9858261000
353 2 2.3865443000 -3.5372540000 -0.9700867100
354 2 -1.4994679000 4.2238387000 -3.7656914000
355 1 1.4586473000 3.9763246000 2.3391914000
356 1 -2.6525778000 4.9923778000 -0.7475093900
357 1 4.9491555000 5.2878550000 -4.8976122000
358 1 1.4102853000 -2.1716536000 0.1678354900
359 2 1.4251770000 2.5152155000 -2.1277481000
360 2 2.9138296000 3.2262739000 2.4841728000
361 2 4.9462235000 1.6261651000 -2.2154600000
362 1 2.8782945000 0.0604135580 -3.6698477000
363 1 -3.8008548000 0.9899579900 -4.6809825000
364 1 -1.1141053000 4.5103371000 3.9333095000
365 2 -4.4069164000 2.5427977000 1.4662552000
366 2 3.2820586000 1.2220770000 -0.7483523000
367 2 0.9505313900 3.3632018000 -3.3741730000
368 2 -0.4188378400 -2.5235636000 3.2786774000
369 2 1.9834502000 -5.4246418000 0.5950876600
370 1 3.3007378000 -0.8991154800 -2.0758666000
371 2 1.1531526000 3.2350209000 0.9097193200
372 2 3.5873036000 0.0169398450 4.0448874000
373 1 4.8200634000 -4.9099836000 -3.9422729000
374 2 -4.1148585000 0.5348862500 -3.2533729000
375 1 -5.0106229000 -0.0514103880 1.6684103000
376 1 -4.4270298000 -1.2862019000 -2.3401676000
377 1 1.9480565000 3.4899517000 -3.4152922000
378 2 -0.4881067300 -4.5087679000 4.8003054000
379 1 -4.3335444000 5.1535793000 -0.9637266300
380 1 -0.2868195100 -5.5902313000 -1.6925699000
381 2 -2.0977143000 5.5750660000 -0.1962639200
382 1 -3.5041983000 3.2332196000 0.1598415700
383 2 5.2359519000 -5.4024358000 0.9143127400
384 2 -1.7171503000 -4.1691015000 -1.5226290000
385 2 -4.1688629000 -2.8657745000 0.1815995600
386 2 3.0120767000 0.1718731500 3.3283624000
387 1 -2.5894587000 -0.1379710800 0.4723470400
388 2 -2.8186017000 -1.0579205000 -2.9555524000
389 2 -1.5573253000 -3.3842630000 0.1817695200
390 2 4.0080428000 -5.2511095000 3.2535886000
391 2 -5.0577938000 -5.3675211000 2.7290423000
392 2 4.3001627000 -4.7200565000 -3.1560740000
393 2 -2.3929991000 -4.7253819000 -0.9784580500
394 1 2.6911132000 -2.4137837000 2.5817338000
395 1 -1.6459579000 4.7874646000 1.5763257000
396 1 -3.3356122000 1.5616214000 -1.6562601000
397 1 -1.5589499000 -5.6212327000 3.9473577000
398 1 0.2287229600 3.2817306000 0.4384023400
399 1 3.4340614000 4.0253527000 2.7506261000
400 2 1.0108165000 5.0221807000 4.8785748000
401 1 3.9727690000 4.0186559000 -1.0308900000
402 1 -5.2649241000 -2.0876185000 -2.3553065000
403 2 3.0878302000 -2.9739248000 -5.0314669000
404 2 2.0734349000 3.2122257000 -1.9562593000
405 2 -3.7822058000 -0.9391939900 2.6843423000
406 2 -3.5630708000 0.1681747800 2.9341754000
407 1 -3.9725672000 4.8111268000 4.5720060000
408 2 -4.9940188000 -5.1802753000 -1.9824382000
409 1 -4.2158373000 3.4343734000 -2.1140756000
410 1 1.2509757000 5.6493285000 3.9748309000
411 1 2.4924034000 3.8214691000 5.1415797000
412 1 -1.1012396000 1.2727738000 0.8796741100
413 1 2.5917604000 -2.2013153000 3.5713434000
414 2 -2.1655868000 1.5503957000 3.4034712000
415 1 -4.7268974000 0.3121525500 4.4442127000
416 2 -0.7400702200 -4.7404671000 2.3686667000
417 1 4.1183855000 0.7510869700 -1.2303769000
418 2 4.8572931000 5.7409307000 1.3447661000
419 2 4.8520267000 -5.5714849000 -0.6435350200
420 2 -4.7533808000 1.2245444000 -3.3325267000
421 1 -4.8647425000 -1.5987387000 2.8318925000
422 1 -4.7877814000 -1.0488470000 -4.6599858000
423 2 -0.9471575900 2.3047425000 4.8404183000
424 2 -2.8370163000 1.8957878000 4.8904016000
425 1 -4.4944269000 3.8681385000 4.4159036000
426 2 2.3424425000 4.9784597000 -1.1320436000
427 2 -0.6967325700 -0.6839083400 3.2538510000
428 2 1.0942571000 -1.3996947000 4.8503251000
429 1 5.3457605000 4.3154824000 2.7882303000
430 1 -1.7884670000 -5.1561504000 1.2354690000
431 1 -1.2899760000 -4.2534373000 -2.5218400000
432 1 -0.9959773100 -4.8268099000 -1.5933476000
433 2 2.2219396000 5.9061236000 3.8250148000
434 1 -2.7649284000 4.0347189000 -1.2506704000
435 1 -2.3847174000 -2.6022936000 -3.3438720000
436 2 1.9432570000 5.0275308000 3.5840841000
437 1 4.2887060000 -0.1835909300 -2.0046323000
438 2 -5.1509429000 2.8435555000 -1.0374681000
439 1 3.4045953000 5.6729581000 -4.1668545000
440 1 1.6019427000 4.2981887000 -0.8306783500
441 1 -4.9772337000 1.0005795000 1.3175182000
442 1 2.9930068000 -4.6456910000 4.9247469000
443 1 -4.1740018000 -5.3949091000 3.2352285000
444 2 2.0601123000 2.9680565000 2.1927445000
445 1 -3.6524188000 -0.3952865200 0.4922915900
446 2 -4.3478276000 2.2856570000 3.5391102000
447 1 2.5200242000 -2.5600619000 -1.9888281000
448 1 3.5391063000 -0.1825168800 -1.2623968000
449 1 -3.9309491000 5.8713615000 4.7839272000
450 1 -1.1108062000 -2.5228626000 0.5757431700
451 1 -3.2330171000 -3.8456015000 3.0562684000
452 2 -2.8000202000 3.8046268000 4.4657064000
453 1 -1.5637196000 -0.9913669900 0.0208907660
454 1 2.0210006000 5.2784158000 4.5904673000
455 2 -3.5031999000 -5.2106188000 0.3155034500
456 1 0.8397776600 1.5708744000 2.8779917000
457 1 1.2838071000 -2.2394644000 1.3776555000
458 2 3.6275809000 -2.6059664000 1.3540585000
459 1 -5.0843082000 3.6967497000 -4.6190464000
460 2 -1.1928676000 0.3338941100 -0.7266173500
461 1 2.7693794000 -3.8730126000 4.1080457000
462 1 4.4658768000 4.1821437000 -1.9841333000
463 2 -2.0779979000 3.7057249000 4.9716755000
464 1 -5.0751369000 -4.6435896000 3.3703464000
465 2 -2.2820937000 -2.8979142000 2.1206976000
466 1 -3.2203797000 -5.4605204000 -5.0779979000
467 1 -1.8228702000 -3.1718101000 -5.1843194000
468 1 1.3230878000 0.4043938800 -3.3850380000
469 1 -0.1674903400 -3.5070922000 3.4343932000
470 1 5.0744400000 -3.3038390000 -2.5472923000
471 1 -2.0557269000 5.7516696000 1.9278393000
472 1 1.1638057000 -1.3050404000 0.7917680300
473 1 5.3152796000 0.6198220400 -4.8244720000
474 2 2.6673577000 -3.5078630000 -1.8104000000
475 2 -3.2271847000 4.1435485000 0.6837777900
476 1 -0.4629307300 -1.0557843000 5.0888910000
477 2 -0.3952659700 -0.1278070500 -0.5957619000
478 1 0.7123180900 4.5383865000 -1.7617629000
479 1 0.3249600300 -3.4942041000 -2.7416102000
480 1 -5.1394945000 -0.1855156500 -4.1726845000
481 1 -1.7643818000 -3.4409216000 -3.0885126000
482 1 3.3444144000 1.7788837000 -3.7990811000
483 1 0.5628166300 -3.4016021000 -3.7658583000
484 2 -3.9597710000 -2.7360971000 2.0190021000
485 1 0.0542380010 -4.5919457000 -1.4827602000
486 1 3.1324455000 4.6214348000 4.7817315000
487 1 -2.4196700000 2.0123715000 1.9551986000
488 1 3.7136482000 -1.4155093000 -2.9853039000
489 2 -3.9805925000 1.4958571000 -0.7850071800
490 1 4.0044503000 4.0807130000 5.1229532000
491 2 -0.3219651800 -3.7455375000 -5.1228673000
492 2 3.8994181000 -0.0108321070 3.1848574000
493 1 -0.0501658200 3.6335462000 1.3895780000
494 2 -4.2859313000 -2.1564054000 -1.8504904000
495 2 1.9737447000 4.9240440000 0.6660401800
496 1 3.5926958000 -2.7867256000 -0.2586937000
497 1 -0.3095059400 3.7576050000 -1.9474807000
498 1 0.7520187700 2.4097954000 -1.4132129000
499 1 -1.9259460000 -1.6823264000 4.1382254000
500 2 -3.1531169000 2.5464709000 -4.2685225000
501 1 -2.3185041000 0.2209399100 3.9963829000
502 2 -5.3088746000 -1.3054946000 4.9185154000
503 1 -5.0263626000 4.4962202000 5.0554846000
504 1 -4.2739628000 -0.4265298700 -0.3704749700
505 1 -3.8193591000 -1.3533046000 -4.3499399000
506 1 1.5026806000 4.1291955000 3.3673273000
507 1 1.2074104000 3.7011535000 0.0153443980
508 1 -1.1451917000 1.9521928000 -2.3850776000
509 1 4.0984460000 -4.6963741000 -2.1799000000
510 2 -1.5443508000 -4.5056133000 2.7959806000
511 2 -2.4387611000 0.8044162300 0.7268071900
512 2 1.3270617000 -5.5436858000 -0.9180031300
513 2 2.7038961000 1.0375130000 -3.8108281000
514 1 0.2157973700 -1.7928578000 4.6589431000
515 1 -0.6208531700 -2.0715391000 -3.7413783000
516 2 4.7814504000 5.1923442000 -1.9027133000
517 2 3.2724364000 -3.5262557000 -0.9018358400
518 2 0.4351800600 -5.3305250000 -0.9049268500
519 2 0.3340957000 5.5617040000 1.5342882000
520 1 2.1385180000 -0.6196399900 0.7684082800
521 1 3.8792424000 5.0019653000 -1.6225958000
522 1 -3.9470841000 -4.4274151000 3.7688414000
523 1 -1.3131043000 -4.0082174000 -3.8965802000
524 2 -0.4097640900 2.7993148000 3.2781285000
525 1 2.1661530000 3.4405362000 -0.4242351300
526 1 1.2444023000 2.4648761000 -4.9203235000
527 2 -0.3059602600 4.8764936000 -1.6754081000
528 1 -4.5061515000 -0.8608095500 4.4955844000
529 2 -5.1405655000 2.0198939000 3.8269458000
530 2 -0.2539708900 -1.9973238000 1.0085862000
531 1 -0.7169496700 -3.8455444000 1.4105508000
532 2 -5.1344949000 5.1818784000 1.3941568000
533 1 0.8295027800 -5.3921441000 -1.7994812000
534 1 2.4034678000 2.5266550000 3.0283160000
535 1 1.2055096000 1.8830483000 3.9063169000
536 2 0.9989419000 -0.0305070850 3.2572137000
537 2 2.7036000000 1.0054268000 3.3817882000
538 2 0.8287833400 -5.3305637000 -2.7923298000
539 2 0.6820840900 -4.3298840000 -4.1083923000
540 2 -1.0478866000 -0.1480830400 0.0172565550
541 2 3.8481045000 3.4234042000 3.4208063000
542 2 0.6722736300 4.7539026000 -0.8120757000
543 2 3.6749830000 2.2822764000 -1.8683722000
544 2 5.3264539000 0.8299594600 0.4395742200
545 1 4.7441544000 -0.8949496000 -0.0250652300
546 2 -1.7361441000 2.8110827000 2.1013018000
547 1 -2.3156400000 5.0644926000 -2.6505323000
548 2 2.4487499000 -0.5911745400 3.2745324000
549 1 -2.6814165000 -3.3481542000 4.6659372000
550 1 -1.3119916000 -2.3325253000 3.5464033000
551 2 1.9942982000 -5.2892085000 -0.3580262700
552 1 -0.1082884200 2.5735748000 4.2357008000
553 1 2.5834771000 5.6728832000 0.2960454100
554 2 4.4991765000 5.4549770000 -0.2058387800
555 1 0.0347526920 -4.4087985000 3.9280519000
556 1 -4.6633179000 -1.9824620000 -3.9925106000
557 1 -0.0080838878 -5.3693386000 0.0754659480
558 2 0.9229195200 -2.0029660000 -2.5715853000
559 2 2.5347171000 -2.0077378000 4.5380907000
560 2 -1.3934967000 5.7682801000 1.2075849000
561 1 4.6215634000 1.4347832000 -4.5814173000
562 1 -0.2873037500 0.0860336500 -5.2365996000
563 1 0.4193456300 -2.1534605000 -4.2584649000
564 2 -1.1231407000 -2.5740954000 -4.6961355000
565 2 2.8890323000 -1.3206308000 0.0112317620
566 1 -0.4517529500 -3.8554178000 -0.8275435400
567 1 -1.2294298000 0.1577147300 4.0731285000
568 2 -0.4676323600 2.6827167000 0.8326462600
569 2 1.6153531000 1.2577714000 2.1264571000
570 1 -3.5964406000 -2.4035425000 -0.4421912400
571 1 2.9808238000 -1.7785440000 -3.6693816000
572 2 0.5286454400 -0.3537718400 -2.1130396000
573 2 -0.7946699600 1.5111823000 1.9091639000
574 2 3.0188385000 -0.3577331200 1.2423529000
575 2 -0.5141371300 -3.1756884000 -2.2807899000
576 1 -2.6603882000 3.3755702000 0.8568220200
577 1 5.0297139000 -0.6246695600 1.0492979000
578 1 3.0455302000 2.2360929000 -1.1114221000
579 1 -1.0296195000 4.4780838000 -2.2258775000
580 2 -5.3099558000 1.9194601000 -4.9401475000
581 2 1.3336566000 -3.2079820000 3.5863861000
582 2 -3.1540495000 -3.9374659000 -4.2044533000
583 2 1.7593847000 -4.5752632000 -2.4046698000
584 1 -3.9583206000 -0.3129743900 1.5339103000
585 1 0.2329713000 2.2310096000 0.2934757900
586 2 3.5920064000 -2.7048772000 2.2436421000
587 2 -1.7703155000 5.4359125000 -1.1494070000
588 2 1.3417640000 -2.8090084000 -3.8721807000
589 2 -2.3989253000 4.3836314000 1.0668639000
590 1 0.2715994400 -0.3839242200 -4.4904966000
591 2 5.3178750000 0.0566166930 2.5824953000
592 1 -0.1847198900 1.8644388000 3.0707743000
593 1 3.3698867000 -4.4397395000 -2.9467960000
594 1 -3.0110766000 1.7613897000 2.8058919000
595 1 -0.5349915500 0.8132280700 4.4876034000
596 2 -1.1143188000 -1.4599891000 -1.0126644000
597 1 0.8786740700 4.1923646000 -4.5995889000
598 2 -1.2157037000 5.3945950000 3.6244546000
599 2 -1.5014556000 -1.1104796000 1.0752329000
600 2 -1.6294196000 1.2540753000 1.7615540000
601 1 -1.7303812000 -5.9123287000 -2.7656456000
602 1 3.8630191000 -4.3485902000 -1.1942816000
603 1 -0.7018187500 -4.7582928000 -3.4647706000
604 2 -3.0361922000 -0.7104146400 3.1364092000
605 1 -0.6505198000 3.9475939000 3.0920913000
606 1 4.7857539000 -2.7326037000 -1.7077104000
607 2 1.2602393000 0.6068869300 0.1329240100
608 1 -2.5522304000 0.1357302300 -3.7391580000
609 2 3.4599560000 1.6199088000 -2.4862796000
610 2 3.6957458000 -3.3697350000 -3.3136101000
611 2 -4.9858240000 -2.5791289000 -1.4696836000
612 2 -4.2335173000 -4.0012952000 -1.2631528000
613 1 1.0577616000 -5.1360665000 -0.0346056990
614 1 -2.9496629000 0.8962515800 3.4218577000
615 2 1.3619849000 0.6243867700 2.7352963000
616 1 0.4574368100 0.3967607800 -0.4941537200
617 1 0.8309089900 3.8599090000 4.9086614000
618 1 3.9355053000 5.1052288000 -5.1228786000
619 1 2.4605239000 5.2151692000 -4.2311208000
620 2 -5.2285922000 -3.0331017000 4.6296204000
621 2 1.4668720000 -3.6766810000 2.7985370000
622 2 1.9856761000 -4.4449134000 -0.7508069700
623 1 -1.8915170000 -2.3553683000 1.4445766000
624 1 -2.7351251000 4.0952356000 3.4675349000
625 2 3.9329470000 0.1399196800 -3.6448204000
626 2 4.8481710000 4.3092892000 -4.9215529000
627 1 2.3262442000 4.4700240000 -3.4951841000
628 2 5.2253836000 2.4523420000 -2.4865021000
629 2 4.7578896000 -3.8821741000 2.6805025000
630 2 1.8176747000 -1.7655038000 -2.4983954000
631 1 1.1957057000 5.4850257000 -2.0554794000
632 2 2.5247368000 0.3403753700 0.8570616300
633 2 3.5561946000 1.4911978000 1.9018068000
634 1 5.0417870000 -5.2814477000 1.9709619000
635 2 3.0321778000 -4.3964970000 2.3768642000
636 1 -4.1471618000 4.0739417000 -5.0571508000
637 2 -0.2120688400 -2.7989702000 2.4377672000
638 1 -4.8413808000 0.3245168300 3.3483669000
639 1 -5.2991370000 5.4914060000 -0.7272958200
640 1 -1.9533612000 5.9207990000 -3.8510400000
641 2 -3.6997862000 1.6494102000 5.0709364000
642 1 -1.5297414000 -2.4205991000 -1.1680081000
643 1 -4.3585869000 -2.7261148000 4.3811231000
644 2 3.9825851000 4.8189711000 2.4790728000
645 2 4.3568758000 -1.8212489000 -5.0597550000
646 2 2.3017384000 -3.9085160000 2.5872941000
647 1 1.4316245000 5.3439403000 -1.0076047000
648 2 -3.5791211000 -2.8618907000 2.8096921000
649 2 -2.8446441000 2.4102895000 1.2062170000
650 1 2.6423494000 1.6839421000 -0.1691061000
651 2 -0.9696644300 -2.4271008000 -2.0197153000
652 2 1.6928419000 1.8535056000 4.8288894000
653 1 -3.0519667000 -2.3142224000 2.0333083000
654 1 -1.9133932000 0.4670999700 -2.1118139000
655 2 -2.8582688000 0.9321483000 -4.2767897000
656 1 -4.3628843000 -1.7196689000 5.1778655000
657 2 2.2626112000 0.0347746730 1.6538916000
658 2 -4.4698474000 5.5884495000 0.8778517800
659 2 -3.5183214000 -2.8244562000 1.2369805000
660 2 2.8799257000 5.1521590000 -3.0224225000
661 1 -0.8571072800 0.2164734400 2.7718971000
662 1 -4.6266066000 -2.6468895000 2.8127177000
663 1 -2.8806015000 3.4538639000 -4.8877176000
664 2 2.2898012000 3.2865732000 4.3098236000
665 2 2.1792463000 -1.6488977000 -4.2729352000
666 1 -1.4492065000 -4.2408340000 0.7632644200
667 1 -0.9033646800 3.6866234000 -4.3147305000
668 1 -0.2515989900 -2.0574876000 0.0110163190
669 2 0.8314605000 -0.4346671900 -2.9547460000
670 2 -3.6261649000 -4.2699636000 -1.8988107000
671 2 2.1170565000 2.3819619000 -1.5840793000
672 2 2.4390799000 -3.7600053000 0.5924042000
673 2 3.9862732000 3.2541648000 -1.7591438000
674 2 -0.8153326100 4.4457477000 -5.0155886000
675 2 2.3216198000 -1.5971412000 -1.6708023000
676 1 -2.6780066000 3.0860315000 1.9054312000
677 1 -3.9945342000 0.6020207900 -0.3518736000
678 2 -1.1750282000 0.7237957400 -1.5224587000
679 2 -3.2506430000 4.3010584000 5.1043381000
680 2 -1.2258994000 1.1327733000 2.5885485000
681 2 -0.9707797800 -3.2261801000 3.9342926000
682 2 1.0997528000 -4.9532617000 5.0509829000
683 2 3.4266784000 2.7763800000 -3.8903195000
684 2 -0.5359683300 -4.9782515000 -0.7149007000
685 1 5.1584688000 3.6384251000 4.7885749000
686 2 4.8412462000 -4.7355291000 -4.8866495000
687 1 -2.3444847000 -3.7130089000 0.6807885900
688 1 3.6530596000 0.9022401200 3.6325331000
689 1 4.3768728000 -3.2216682000 1.9254582000
690 1 -2.6359018000 -4.2744989000 -1.8171169000
691 1 -0.3817236100 -5.8691568000 0.9601273400
692 2 -4.9345499000 -5.8129463000 1.5013067000
693 2 0.3189863100 -2.5980307000 1.4206726000
694 2 1.8120016000 2.6005250000 -4.1495295000
695 1 -2.4528414000 -4.6518270000 4.8918997000
696 1 2.5583336000 2.6413447000 -3.5263956000
697 1 3.4102052000 5.6362266000 -2.3256364000
698 2 2.6345486000 3.1879252000 1.5664875000
699 1 -0.1948011900 1.2259186000 -3.8920166000
700 2 -3.7731966000 0.4848280900 2.0575920000
701 1 -3.1543927000 0.7538074400 -0.9947361800
702 2 1.1923023000 -3.1096288000 -3.0067686000
703 2 -0.9640468500 0.0588082510 -2.2934709000
704 1 4.7525224000 -1.5346821000 -3.0960835000
705 1 -1.9223319000 -5.0023399000 -2.1385118000
706 2 -4.1373692000 -3.5528628000 -2.0744181000
707 1 3.6254576000 0.6808268900 -2.1384035000
708 2 -4.0952189000 2.9638027000 -2.9719720000
709 1 -3.4909744000 2.4120845000 2.0667831000
710 1 1.1999155000 1.0862021000 1.1813625000
711 1 4.8471690000 4.1483702000 -3.9854337000
712 2 4.6566639000 2.8613317000 -3.0396516000
713 2 4.9794032000 -2.4924338000 4.0781691000
714 2 2.6328027000 -5.1289976000 -2.7003556000
715 2 -1.5970965000 2.9484166000 4.8612333000
716 2 -1.2998197000 3.2751001000 -0.4050370000
717 1 -3.0112829000 3.2758480000 -1.9054397000
718 2 4.8199668000 2.9501080000 -0.4776655500
719 1 -0.3344654800 4.4262555000 2.2340862000
720 2 1.4572208000 -3.7690395000 0.5262542700
721 2 -2.2501343000 -1.5644674000 -3.5032994000
722 1 2.5153589000 4.3670814000 3.1061191000
723 2 1.3850764000 4.6395750000 4.1806278000
724 1 -3.3477624000 -5.1512264000 4.3663167000
725 2 -4.9868829000 -1.5548781000 -3.1413339000
726 2 -2.5879507000 -2.5442118000 -0.6846019500
727 1 2.8099296000 -0.2396794200 2.4459047000
728 2 2.6733212000 1.5288298000 1.8049446000
729 1 2.8146002000 -4.1926971000 -0.2945776700
730 1 -1.0600631000 -5.0682386000 0.1859698800
731 2 0.2681324600 0.6514914800 -4.5551643000
732 2 -2.9771348000 4.6829347000 4.2938178000
733 1 -2.4319598000 3.3237573000 -2.9582882000
734 2 -1.5479113000 3.3336565000 -3.5488598000
735 2 -1.4642552000 -3.7924528000 3.3618676000
736 2 3.3768669000 -2.0167071000 4.1070550000
737 1 -1.9260904000 5.3069021000 -5.0813542000
738 1 2.0519571000 1.2018038000 4.1094672000
739 1 -2.1675925000 -2.0291549000 2.5669463000
740 1 3.9858105000 -2.3813242000 -3.5092869000
741 1 2.8666265000 -3.5050612000 -2.7827914000
742 2 -3.0437590000 -1.8962562000 -3.2155885000
743 1 -4.1182077000 -4.9789996000 -1.4096542000
744 1 0.1329573700 -3.5545178000 -1.6800707000
745 1 -3.2994118000 3.3950453000 -3.7960494000
746 2 -3.8759556000 5.7286612000 -3.1995671000
747 1 3.5816987000 -3.7453582000 4.7881222000
748 1 4.4527422000 -4.3214937000 1.8278162000
749 2 -1.0908141000 4.7207718000 -1.1892597000
750 2 -1.7683391000 -2.6131235000 -0.2347604400
751 1 -3.8199587000 1.3956885000 -3.6705876000
752 1 -4.8819740000 2.3265798000 -3.3415067000
753 2 3.8396799000 -0.9011899500 2.8207248000
754 1 0.7013785900 3.4063751000 -1.9342454000
755 2 0.1558662400 1.3659845000 -0.3082510300
756 1 4.2853950000 -1.8396962000 4.4441167000
757 1 5.0966756000 0.2240975600 -1.4259828000
758 2 -0.4432809400 2.6989398000 -2.7098156000
759 2 0.9988339700 -0.4639552300 -1.3546072000
760 1 2.4792516000 0.0364056820 -2.5500894000
761 1 4.2857144000 -5.2638763000 1.2739579000
762 2 5.1980566000 -3.1430858000 -0.9018544200
763 1 -3.9946944000 -3.6794002000 -0.3211695600
764 2 1.5179389000 -3.6721863000 -0.9455350300
765 2 -4.6115578000 4.6467631000 0.9207447600
766 1 3.2320936000 3.1144657000 0.8154450500
767 2 -0.6886383500 1.7987028000 4.0919889000
768 2 2.2101628000 -4.5951512000 2.0066610000
769 1 -4.6621922000 -2.6865693000 -5.0269983000
770 2 -0.2794147200 -4.2163108000 -2.3737779000
771 2 -4.4748864000 1.7636521000 0.9307519100
772 2 2.8765490000 -0.9321442000 5.0826863000
773 2 2.0421454000 -5.3018705000 -3.3588803000
774 2 1.1225381000 -3.6624993000 -1.7346676000
775 1 0.6603575500 -2.2713686000 2.2688868000
776 2 -4.6199661000 -1.0005898000 -3.7134901000
777 2 -4.8789865000 4.9330333000 2.2118595000
778 1 2.0195019000 0.3040732500 3.4252578000
779 2 2.7389661000 1.3921686000 -4.6132132000
780 1 3.7135361000 5.7508658000 0.9452854400
781 2 -0.1237504600 -2.5337003000 -1.7217920000
782 1 1.9372676000 -0.9277100400 4.7540850000
783 2 2.9525718000 -0.4223270200 -4.5974207000
784 1 0.9585250100 -0.3220358700 0.4336991800
785 2 0.2626800800 -0.7866036500 -3.5573976000
786 1 1.6213475000 3.0630790000 3.5852476000
787 2 3.1826946000 -4.3618793000 0.5812769100
788 2 -3.6882720000 2.3287991000 -1.1707236000
789 2 3.7991991000 -3.7308486000 3.8001280000
790 2 -1.1841651000 -1.9220322000 -0.2512244200
791 1 -0.3183174600 -4.3517487000 0.4657736600
792 2 -5.1611856000 2.0392030000 1.4655387000
793 2 -0.3308922300 1.0533768000 2.4869484000
794 1 4.9527622000 -3.7947178000 -0.1252746800
795 1 -1.2927892000 5.0452303000 -3.1530728000
796 2 -3.4666777000 -1.2376521000 1.8610766000
797 2 2.1539243000 -4.2033743000 -4.7867193000
798 1 -1.5158673000 4.3000319000 0.4355766400
799 2 -1.6372653000 -0.2578353200 0.6991027400
800 2 0.1432451400 -1.9071628000 3.6821644000
801 2 -4.0924936000 -3.5566277000 0.6901643400
802 2 -3.1031758000 4.7604744000 2.8197180000
803 2 1.0642634000 1.1707717000 -0.6289139000
804 1 2.3321588000 4.2795176000 4.1608821000
805 2 -0.9097990800 -1.8358811000 -2.7411911000
806 2 -4.5350496000 2.1699847000 -0.8839048900
807 1 -3.7893237000 0.2706217400 -2.3787680000
808 2 2.1794419000 -0.8914998000 -4.7737356000
809 2 2.5745605000 -5.5846796000 -4.1123210000
810 1 -2.3058155000 -4.2892160000 -3.8170787000
811 1 -2.1924364000 -5.4735050000 -4.8497066000
812 1 -1.7773611000 4.3075148000 -4.7244840000
813 1 0.9073298700 -3.0288638000 0.7582361600
814 1 4.7708370000 -5.7795097000 2.9508283000
815 2 2.6494938000 -0.2747073700 -1.6633439000
816 2 -0.6551011200 -1.3222054000 2.5631539000
817 1 -0.7000811200 2.4340375000 2.2994718000
818 1 -4.2180662000 -2.9661884000 -3.9775966000
819 1 -1.2976876000 2.1697126000 1.4542511000
820 1 1.1593634000 -5.0497043000 -3.6640095000
821 1 -0.2579297600 -4.0048158000 -4.0884588000
822 1 1.0528067000 -4.4126068000 4.1862626000
823 2 5.0625386000 0.6955918100 1.9817241000
824 1 -4.9417496000 1.1632451000 -0.7532380200
825 1 0.9743582700 -2.3838533000 4.2392810000
826 1 -4.0718104000 3.2443773000 3.6606195000
827 1 2.7636744000 1.7816048000 4.8613306000
828 1 -3.7181252000 4.0180502000 3.0478787000
829 2 -4.7334481000 3.5812513000 -1.3004317000
830 1 -0.1634939600 0.9315985900 1.4076391000
831 1 -1.5246534000 -4.3330049000 1.8588387000
832 2 -0.8636276700 -4.3718420000 -4.7651976000
833 1 4.1848293000 4.9786962000 -4.1162461000
834 2 4.1230438000 -0.1824133300 0.2489827400
835 2 -3.1754874000 0.5537777100 4.3241655000
836 2 -1.3334828000 1.6097081000 -1.4562333000
837 1 -5.0978035000 1.0389948000 -1.8039317000
838 2 -2.2595529000 -4.2807614000 -2.8057789000
839 2 2.9585521000 -4.0665690000 3.1992951000
840 1 1.6075294000 -0.6254474200 3.7599815000
841 2 1.7666816000 4.7391746000 -1.7807907000
842 2 3.3395134000 -1.8361657000 -0.5680822000
843 2 -4.8143581000 -3.7664534000 -2.6277482000
844 1 3.6507058000 1.6898041000 -4.8645566000
845 2 -0.4307748000 3.4061550000 2.3164265000
846 2 -2.0687483000 -0.6524848900 -3.3401220000
847 1 0.7483524900 -5.9118363000 0.6929439800
848 2 4.7390493000 -4.8069881000 2.8307698000
849 1 4.3837837000 -1.0704313000 1.8912395000
850 2 -2.8027575000 -2.0141965000 0.0270540050
851 1 1.5653814000 5.7616505000 0.0334570000
852 1 -3.0609491000 -5.2168867000 -1.5852044000
853 2 -2.2775126000 -3.3930763000 3.5546812000
854 1 5.1868183000 5.2710157000 -3.8221969000
855 1 -3.4210208000 -2.6123196000 4.7704534000
856 2 1.6694358000 -2.0608410000 4.9255903000
857 1 4.2537921000 -5.6812292000 -4.7908886000
858 2 1.3309357000 1.8682655000 -4.1316351000
859 1 -1.0206167000 3.5042820000 -2.7255723000
860 1 -1.2157011000 3.7837520000 -1.3199850000
861 1 3.3113883000 -2.5666378000 -2.7245249000
862 1 -4.6590976000 1.3955603000 3.1756583000
863 1 -4.1173899000 5.1197475000 1.6377517000
864 2 0.5590658500 -2.0883442000 0.6907660100
865 1 -1.6775801000 3.9228424000 3.3245191000
866 1 4.7226279000 1.4294374000 1.3345821000
867 1 -0.6531539600 -3.6810090000 -3.1327208000
868 1 4.2701785000 3.1685660000 0.9029472200
869 2 3.2890404000 1.4388287000 -1.6229352000
870 2 -3.6411790000 -3.6727230000 -3.4724178000
871 2 -5.2656106000 -4.6169165000 -0.4917166300
872 1 -2.3400264000 5.8836868000 -1.8981139000
873 2 1.0087077000 1.7695302000 -2.5559233000
874 2 3.4748756000 2.9311527000 1.7650043000
875 1 2.8324049000 -4.3521733000 -1.3320149000
876 1 3.9977694000 5.4076195000 3.5914589000
877 1 3.8624842000 3.5476063000 -0.0549465730
878 2 -3.5292697000 4.2282881000 -1.9809071000
879 1 1.7459756000 5.7043746000 1.1831626000
880 2 -3.8932988000 5.0645696000 -1.8427841000
881 1 0.2538569400 -1.2208627000 -2.5459936000
882 1 1.3045395000 -5.9062291000 5.1387252000
883 2 -0.1877650300 -2.8779305000 -3.4146636000
884 2 4.7801585000 -1.7240775000 -1.6720059000
885 2 -0.2841612600 0.6271607800 -1.1143821000
886 1 -2.7376200000 2.3733828000 -1.4084251000
887 2 1.9209123000 1.7902680000 -2.3401148000
888 1 -3.4136608000 5.8667420000 -2.2871777000
889 1 2.0566627000 -5.1314481000 -1.4963592000
890 2 4.7415127000 3.6702731000 3.2701962000
891 2 -0.2338090700 2.8075574000 -4.3538402000
892 1 0.9750284900 -5.5774884000 1.6965378000
893 2 2.8021987000 3.3571188000 -2.8901230000
894 1 5.2221938000 3.1406671000 -3.7907419000
895 2 4.1978894000 4.5568226000 -0.1567691200
896 2 -4.2536773000 4.4649191000 -4.1722493000
897 1 -2.9983425000 1.6909902000 -2.6522977000
898 1 -4.2860669000 1.6262364000 1.8908824000
899 2 -1.7754578000 -2.4512628000 -2.5086188000
900 1 -1.4952921000 -4.9804755000 -4.2456250000
901 2 -1.0441352000 -1.9356051000 1.3794597000
902 1 4.5638464000 -0.5253230600 -4.0934450000
903 2 2.8820695000 3.7810387000 0.1576016900
904 1 2.8899399000 -1.0564208000 -1.0204620000
905 2 -2.1486486000 -3.6272030000 1.6219681000
906 2 -1.5148386000 5.2992118000 -2.0420195000
907 2 4.2634370000 1.3406213000 -2.7207997000
908 1 2.9477998000 0.7476937200 4.3769436000
909 2 2.1385659000 5.6860043000 -1.6924169000
910 2 4.2644156000 1.7920071000 0.4099522000
911 2 0.4162851600 4.3515272000 -3.4265962000
912 1 1.6347630000 -5.8120266000 -4.2393271000
913 2 0.0745826060 -5.0383322000 -2.3890726000
914 1 4.3593981000 1.1201661000 -3.6239323000
915 1 -1.4868607000 -1.3768711000 2.0104175000
916 2 -4.0013537000 2.0833706000 -3.0032574000
917 2 1.2864798000 -4.9148573000 0.9250109100
918 1 4.3971975000 -5.8722455000 -3.7556432000
919 2 -0.8918468600 0.3027272400 0.8053942000
920 2 -3.6711545000 2.0217985000 1.1811372000
921 2 -2.4900853000 -5.8520628000 3.5828352000
922 2 3.3386722000 4.9335294000 3.0694967000
923 2 2.3504257000 -2.5152917000 -2.9712072000
924 1 0.1222832100 -1.1247954000 0.6310486200
925 1 -3.1547386000 -2.9738022000 -4.0018891000
926 2 3.1563496000 4.6015179000 -1.1387393000
927 2 0.3202931100 5.8160911000 -2.3750974000
928 1 -1.2093819000 -5.9127477000 -4.6186807000
929 2 2.7902256000 -4.8948457000 -3.5732015000
930 1 0.4750986700 5.4148776000 -4.8304696000
931 2 -4.0493534000 4.0884890000 0.3732017000
932 2 -4.3708898000 5.3255704000 -2.5322793000
933 1 4.6634154000 -3.2143014000 -3.5719773000
934 2 -2.1336850000 3.4582714000 2.6240408000
935 1 -1.8851717000 -3.9395660000 4.2716732000
936 2 5.2610034000 -1.2874166000 -3.9532312000
937 1 2.8555860000 3.3885878000 3.5108037000
938 1 2.7227999000 4.8901556000 -2.0530994000
939 2 1.2085012000 -4.1723310000 -0.2816309900
940 2 1.8127984000 -5.4405884000 4.4602496000
941 1 3.3844746000 4.2688319000 3.7911156000
942 2 -0.0459720850 2.7924148000 -1.8651250000
943 1 -1.2208654000 1.3790842000 5.0846827000
944 2 1.5270164000 0.3696689600 -5.0198475000
945 2 -2.9366124000 -1.7281499000 -0.8248024900
946 2 -3.3889736000 1.4185096000 4.2852896000
947 1 -5.2249925000 4.3845664000 -1.0253115000
948 2 -3.7812415000 3.7286493000 -1.2901021000
949 1 3.8168518000 -4.6069800000 -4.8475616000
950 1 -1.7063129000 5.8631629000 2.9287191000
951 1 1.4824607000 -0.1839312300 -2.2255670000
952 1 1.9922293000 -4.4996934000 4.6453026000
953 2 2.0804364000 -1.5374418000 -3.3636959000
954 1 -2.2133799000 -0.3640439200 1.5138390000
955 2 2.9275474000 5.1683177000 -0.4573809100
956 2 3.2823508000 -3.5433482000 0.2823908900
957 2 0.7602956600 -1.2316476000 -4.1581344000
958 1 0.8954522600 -4.0222736000 1.3163368000
959 1 -5.0597614000 -3.8112972000 4.0468095000
960 1 -3.3517106000 5.7579301000 0.9090852400
961 2 0.7196383200 -4.8345635000 3.3558148000
962 1 4.8727531000 0.5971960200 -0.4781325400
963 1 -1.2079809000 -5.7569809000 -0.6437279800
964 2 2.8554130000 2.4173819000 2.1153802000
965 2 -4.3606547000 -1.1701743000 0.3251987100
966 1 5.3161533000 -1.5353452000 1.5690381000
967 1 -4.9755777000 -3.6850138000 2.9018662000
968 1 1.6277956000 -5.2081605000 3.5131142000
969 1 2.7137791000 -5.7388641000 4.6769413000
970 2 -1.1743485000 -0.5710615200 -0.7777694900
971 1 -3.7007462000 1.4887691000 0.2406835800
972 2 -1.1101370000 -5.2441860000 3.0785380000
973 2 4.3967038000 0.7616546900 4.2339967000
974 1 5.0636301000 -4.1451759000 -3.2224328000
975 2 -3.0655915000 -0.8975272300 -1.0973704000
976 1 -1.1450545000 -5.5628455000 2.0419917000
977 1 -1.3693459000 -3.2210652000 2.0849403000
978 2 2.1235429000 -2.3977614000 -3.8313151000
979 2 4.2346332000 3.1489095000 4.8109567000
980 1 1.9571180000 0.4486791000 -1.5089242000
981 1 -0.0846737710 2.2445526000 -0.7679143400
982 2 5.2516053000 -3.7229357000 1.9237121000
983 2 0.4548547600 -1.6748885000 1.4883753000
984 2 -3.5255969000 4.4868319000 2.1057495000
985 2 -0.3098186600 -3.6275459000 4.4654484000
986 1 3.1284065000 3.7273110000 -3.7632822000
987 2 -3.5680925000 4.8227619000 3.6249236000
988 1 -4.3822394000 1.5462039000 4.2279510000
989 1 -3.3607030000 -4.3142120000 -0.9434356400
990 1 -0.8585200100 -1.9172064000 4.4607726000
991 1 2.3421963000 1.4762218000 -1.2835996000
992 1 -3.4381047000 3.6387728000 -2.7678390000
993 2 0.4574692700 1.6682160000 1.1063040000
994 2 1.9675738000 -3.6852820000 -0.1970650800
995 2 -0.7291319300 -5.0064770000 3.8847731000
996 1 -3.9432118000 0.6748328900 3.7441564000
997 2 2.9963080000 -1.3607369000 -4.5748116000
998 2 3.3328281000 -0.6501852400 3.5081714000
999 1 -0.3800052500 5.2056321000 4.2290381000
1000 1 2.2195943000 -3.1541808000 3.2176742000
1001 1 2.9775457000 -0.3218076800 0.2033443100
1002 2 0.8820733900 -2.9362242000 -4.6009021000
1003 2 -3.0447080000 1.4163380000 1.0051971000
1004 1 -3.8820152000 -1.8985186000 2.5363419000
1005 1 3.7103486000 -0.8276380500 -0.3904642300
1006 2 -3.5496411000 -5.2968945000 -3.3566281000
1007 2 -1.9819696000 -5.1417458000 2.2302671000
1008 1 -4.3669217000 0.1706031300 -5.0145725000
1009 1 0.3294151600 1.0213413000 5.0339189000
1010 2 -4.2588693000 1.8013676000 -1.7009408000
1011 2 -5.2174755000 -2.8980575000 -4.1944351000
1012 1 -2.4554321000 1.2176687000 4.3171565000
1013 1 4.8833393000 2.8897588000 4.0787970000
1014 1 -3.3639342000 4.9662353000 -3.8604047000
1015 2 1.8458172000 -4.2512956000 1.1900510000
1016 1 1.8903129000 -4.1357591000 3.5489630000
1017 2 -3.5739286000 4.0217866000 4.0522675000
1018 2 -0.0977733030 0.2762117800 2.1470494000
1019 1 -5.1982347000 -0.6863223500 3.2305666000
1020 2 0.4430182800 3.7318595000 2.2348555000
1021 2 0.8445456000 -4.0695253000 2.3009003000
1022 1 1.0458452000 -3.1547764000 1.8707331000
1023 2 2.2082346000 5.7312941000 -5.0140479000
1024 1 4.3892802000 -3.7101756000 -1.8568028000
1025 1 -5.0439605000 -3.5504258000 -1.6526953000
1026 1 -4.1503032000 -3.0236744000 -1.2334456000
1027 1 -2.6660431000 -4.7650084000 0.6679305000
1028 2 -1.1531726000 -1.6520127000 -4.6133394000
1029 1 -4.5844224000 4.9907486000 0.0270410920
1030 1 3.5592289000 0.8240846900 -4.2622701000
1031 2 1.1384674000 -3.2611042000 -0.2058825300
1032 1 0.3935824200 4.2626718000 3.0404547000
1033 2 1.4600434000 -1.5391265000 -4.8128036000
1034 2 0.1053397300 -3.5966589000 0.9576592500
1035 1 0.1016951900 3.5504757000 -2.8975860000
1036 1 -4.3462101000 4.3401363000 -2.5960537000
1037 1 -2.7468548000 -5.2033697000 -2.7677682000
1038 1 3.5011128000 0.7601530200 2.6182158000
1039 1 1.8461937000 -2.7439743000 -0.6415646800
1040 1 -3.7789853000 -2.0358901000 0.5376701100
1041 1 5.2714060000 3.0594878000 1.4486476000
1042 1 3.9208600000 -5.1522926000 2.2899654000
1043 1 -3.2489580000 4.1431869000 -0.3101099500
1044 1 1.1525532000 0.8627886800 3.6595277000
1045 1 1.0962424000 4.1862322000 -2.7005170000
1046 2 0.5402533700 4.9296737000 4.0618936000
1047 1 -4.7181493000 -2.0854318000 0.0734045490
1048 1 4.3742782000 0.8138916800 0.4480000900
1049 2 2.0379766000 -3.0825762000 2.2372583000
1050 2 -5.2146249000 5.8093713000 -2.4103090000
1051 1 -3.9854753000 1.2820593000 -2.5061810000
1052 2 -2.3718854000 -3.2895445000 -0.2227876300
1053 2 -2.0739088000 1.0160688000 -3.7346926000
1054 1 -4.9576771000 4.2813992000 -3.4994778000
1055 2 -1.4342581000 3.6504514000 4.3248355000
1056 2 -1.6413456000 -1.3187831000 -2.8919733000
1057 1 -4.1927389000 5.5597566000 3.7804931000
1058 1 -4.8190745000 2.5986155000 -4.4011381000
1059 2 -2.4653082000 1.0464241000 1.6093205000
1060 2 -4.9906770000 0.3257400900 -3.3637928000
1061 2 -5.3412885000 1.6907694000 0.6648794500
1062 2 -4.9240439000 0.3337141200 -0.1397783700
1063 1 -4.8366110000 -4.7622468000 -2.9309225000
1064 2 2.2432151000 2.4592885000 -0.6168678500
1065 2 -0.7233266600 -4.3889996000 3.2203314000
1066 1 3.7784310000 1.4861154000 4.5763624000
1067 2 -3.7519608000 2.3002247000 -0.2960465300
1068 1 -0.7465324800 -4.9116883000 1.2879830000
1069 2 -3.4208903000 4.1449199000 -4.4034676000
1070 1 -2.0368753000 -0.1455476900 -0.4719775600
1071 1 -2.7405890000 -4.6222941000 2.4891982000
1072 1 4.8340039000 -3.2409094000 3.4369933000
1073 1 4.3613070000 -0.7789097900 3.6767288000
1074 1 -3.7822588000 -1.2268714000 -3.2532878000
1075 2 -3.4858835000 -0.2050993300 -3.2520125000
1076 2 5.3030974000 2.0749450000 -0.6806158700
1077 2 -2.1309079000 1.2767688000 2.5380781000
1078 2 -1.1406575000 -0.3366369300 4.9249450000
1079 2 -2.6380978000 4.7287212000 1.9621004000
1080 2 4.5995989000 4.7717165000 -0.9470738300
1081 1 2.3551485000 -0.0520553630 5.1879163000
1082 1 -2.7969338000 1.7488324000 -3.7506421000
1083 2 -0.3928426500 -0.8727316400 -1.1218783000
1084 2 4.6180965000 -0.4672289600 2.7521546000
1085 2 -0.7063480600 3.1614928000 4.7221686000
1086 1 -1.8896840000 2.0753354000 4.5459518000
1087 1 -2.1967624000 4.9087938000 -3.8695613000
1088 1 0.3214045600 -4.9983980000 1.0376444000
1089 2 -2.7575321000 -3.5893101000 -3.2743446000
1090 2 -4.0013135000 -4.0988935000 -2.7697070000
1091 2 4.1531865000 1.5141600000 -1.8752481000
1092 2 4.7780196000 4.6467973000 4.7339824000
1093 1 -2.8903541000 -1.8534461000 -4.2146241000
1094 2 -1.5440420000 1.9439207000 2.3576477000
1095 2 -4.7243088000 0.6585135500 -2.5974073000
1096 2 0.2269861500 -1.2025230000 2.2810006000
1097 1 5.3430041000 -5.6624374000 -4.4821770000
1098 1 2.8325095000 -2.8618412000 0.8017543500
1099 1 2.8411608000 -5.3204645000 2.1670082000
1100 2 -1.9161609000 -0.5036333400 4.4945734000
1101 2 4.7460596000 -0.1413276700 1.9062539000
1102 2 -4.3648741000 4.1842230000 2.2945307000
1103 2 -2.5147100000 -4.4281696000 1.5647420000
1104 2 1.6244878000 -1.0309520000 -4.0465153000
1105 1 -1.7350755000 -0.4108128700 3.3747459000
1106 2 -1.0551016000 -3.4869831000 -4.6804061000
1107 2 -4.1185050000 2.5105595000 0.5239616100
1108 1 -2.7948457000 -2.6280072000 -2.3530529000
1109 1 5.0841028000 1.8748554000 3.0134028000
1110 1 -2.3992017000 -1.9982608000 -1.5767626000
1111 2 -4.2557288000 -4.3065084000 1.1761267000
1112 1 -4.6714118000 1.8634739000 -0.0073941637
1113 1 4.5400699000 5.6118378000 4.6269594000
1114 2 -3.8681790000 -1.1860182000 1.0749396000
1115 1 2.8812145000 5.1949613000 3.9074906000
1116 2 -4.5821778000 2.4680237000 -2.3837700000
1117 2 3.8161366000 3.1814303000 2.5486432000
1118 1 -4.0558899000 4.9977172000 2.7719561000
1119 1 -4.8887699000 2.3851120000 2.3469700000
1120 2 -0.5761927500 5.6905937000 0.0302191660
1121 2 1.6573109000 4.3614338000 5.0179101000
1122 2 1.7581757000 5.7234431000 3.0532885000
1123 2 4.6534769000 0.7868786800 -2.0976675000
1124 1 2.5944134000 1.0350497000 -2.2276096000
1125 2 -3.1665430000 -3.2664869000 -0.6751210800
1126 2 1.6802090000 -3.8756999000 1.9627617000
1127 2 4.5435177000 1.0947534000 3.3532052000
1128 1 -5.0405649000 -2.7674953000 -3.2428197000
1129 1 2.7771511000 -1.4565810000 1.0378460000
1130 1 -4.2860631000 -4.7570262000 -0.3805280000
1131 1 1.1558182000 4.7655828000 0.0545174960
1132 2 -2.1028500000 0.5357759100 -4.5671034000
1133 2 -2.5224370000 2.5185395000 -2.3477869000
1134 1 1.5017071000 -2.1358653000 -1.5683300000
1135 1 1.5049520000 3.0987947000 -1.1576236000
1136 2 -4.3514330000 -4.2879908000 -4.9950074000
1137 2 -4.3476312000 -5.2221617000 4.1919282000
1138 2 -3.1316475000 1.7162891000 -0.7212581000
1139 2 -4.8422385000 5.5876809000 -3.2178798000
1140 2 0.8964806400 2.6826241000 -4.0115492000
1141 2 -0.0877604960 -2.7921893000 0.6181443000
1142 2 4.3562968000 3.1771057000 1.8709674000
1143 1 3.4035772000 3.3693148000 -4.7878571000
1144 1 1.3852477000 -2.9860881000 5.0576233000
1145 1 2.9064312000 4.7763262000 2.1651728000
1146 1 3.1028299000 5.6732095000 -1.2877843000
1147 1 4.6178820000 1.8375385000 4.0231427000
1148 2 3.4732660000 1.2538742000 0.1840965800
1149 2 4.9862355000 1.4787005000 -0.1085001100
1150 2 4.1455920000 -1.7321382000 -0.1435327500
1151 2 0.5166915000 -0.7962632900 1.5004585000
1152 2 -3.2959557000 0.5886217500 0.3947631600
1153 1 -5.1636276000 -3.0676007000 0.3903351500
1154 1 -2.1853209000 1.5379296000 -1.9540453000
1155 2 -3.2085901000 5.6335578000 4.1089995000
1156 1 -0.8855006700 3.4809019000 0.5229628200
1157 1 -1.9020366000 -2.2223219000 -4.2578010000
1158 2 1.4162460000 -4.5563471000 2.7835115000
1159 2 2.3569428000 -1.5888774000 2.1562081000
1160 2 4.9487397000 -5.4276876000 5.0127285000
1161 2 -4.3489813000 -1.3413921000 3.6209018000
1162 2 0.0956524490 -1.1403568000 3.1844874000
1163 2 -0.3079131700 -0.5938560400 -1.9598364000
1164 1 -1.4237167000 -4.8077441000 4.6462883000
1165 2 -5.2195665000 -1.3358641000 0.5585935500
1166 2 -3.9916590000 -5.7221016000 1.5044881000
1167 2 -2.5162271000 -1.1650427000 4.7277154000
1168 1 3.3242004000 3.5210568000 4.5303903000
1169 2 1.8865014000 -1.4866504000 1.3999078000
1170 1 -3.1308374000 0.7712173400 -3.1172497000
1171 1 -2.5969126000 -1.0351777000 -0.2075584600
1172 2 -4.6664771000 -2.1677779000 1.9158283000
1173 2 -0.6083459300 3.1454457000 -3.5406822000
1174 1 -1.2897031000 5.0674610000 -0.2836140100
1175 1 -1.2803301000 3.0366656000 2.9445933000
1176 1 -1.4643229000 1.2110372000 4.0746769000
1177 1 3.1735479000 -5.4856350000 -4.8920447000
1178 1 0.8699928800 -5.7226530000 2.9833109000
1179 1 -4.7383166000 1.4568893000 -4.2950279000
1180 2 1.4467298000 3.2811908000 -2.5887784000
1181 2 2.1207563000 3.5026028000 2.8803116000
1182 1 2.7706119000 -5.6774216000 1.1797762000
1183 2 4.5042949000 0.4354565200 -4.3263113000
1184 1 3.0620942000 0.6042152000 1.6719913000
1185 2 -1.3489334000 1.2029887000 -0.5958133600
1186 1 2.9296581000 -3.9232810000 -3.8256562000
1187 1 2.4074237000 3.2912248000 -4.4095520000
1188 1 1.4352886000 2.7918401000 4.5952823000
1189 1 4.9272672000 -5.2529589000 -2.6092011000
1190 2 2.3584488000 -1.6790602000 -5.1422626000
1191 1 2.9801840000 1.6803782000 2.7278054000
1192 2 3.0577823000 -3.8863393000 -4.8318109000
1193 1 -5.0976689000 -5.6503854000 3.7307179000
1194 2 -0.8265762900 5.5342080000 -1.3545717000
1195 1 -4.4677235000 -5.1900642000 0.7767663400
1196 1 -2.0942651000 3.1670287000 -1.0453558000
1197 2 0.1577847900 -0.1701780900 -1.2911827000
1198 2 -0.5356621100 2.8095136000 -0.0961539860
1199 2 -5.0298819000 -0.5380607300 0.2385386100
1200 2 -3.2541454000 4.7942822000 1.2956023000
1201 1 -3.7214097000 -2.3438301000 -4.6974246000
1202 1 4.4818801000 -4.6970248000 -0.4184525400
1203 1 -5.0524159000 5.2735851000 4.3348573000
1204 2 -2.5036388000 -3.8371655000 -0.9316539500
1205 2 -5.0490218000 -5.3354910000 -1.0568132000
1206 2 0.6260293800 0.3564037100 -2.6355571000
1207 1 -0.8429573500 -2.9278077000 4.9257032000
1208 2 -0.6555506700 4.0767345000 4.6493373000
1209 1 3.8414746000 -0.9757390100 -4.9368850000
1210 2 -3.0389596000 -3.9476563000 -0.0271842760
1211 2 1.0897932000 -1.3284441000 -1.0372712000
1212 2 -2.5631134000 0.0354752950 3.0369004000
1213 2 1.3606073000 -4.7152383000 -4.5764859000
1214 2 2.0494561000 2.0513023000 2.1750119000
1215 2 1.9773733000 1.7582395000 1.2870139000
1216 2 -0.4140620200 -0.5345825500 2.2227503000
1217 1 0.8541906400 0.4817770600 -1.5574158000
1218 1 0.5620110600 2.5314747000 3.4305693000
1219 1 5.1871419000 3.3044164000 0.4031439400
1220 1 -2.0619133000 -4.2444712000 -0.1579786100
1221 1 -1.9170236000 -1.8490230000 0.4750442700
1222 2 1.3760589000 3.4207635000 -4.2028696000
1223 2 -3.0401857000 3.9515610000 1.5559528000
1224 2 -0.4575506400 -1.1926248000 -3.2249040000
1225 2 -1.0344711000 -0.6689400500 -4.6650238000
1226 2 1.0281911000 0.3010288800 -4.3211323000
1227 2 0.5211722400 2.9578581000 4.9066666000
1228 1 -4.4248721000 5.8653693000 2.3474791000
1229 1 4.4297678000 5.0146551000 0.7159597800
1230 1 -4.4645688000 2.2692463000 5.0959891000
1231 2 0.4530411800 -3.3860883000 2.6639768000
1232 2 0.2361784900 -5.0570366000 4.7363814000
1233 2 -0.2616412800 -2.0078705000 1.9368600000
1234 1 2.7661900000 -1.7102600000 -2.5578218000
1235 2 -0.9705527300 0.6181844900 1.8448292000
1236 1 -4.2950280000 4.1443388000 -0.5630548300
1237 1 -2.9445570000 -4.1763494000 4.0526639000
1238 1 4.1278680000 -2.0992580000 -2.2679748000
1239 2 -4.4486748000 -4.3406306000 4.5981412000
1240 1 -0.8670306500 5.0583998000 0.7602232400
1241 1 2.0279010000 -1.6833531000 -0.6804945300
1242 1 -1.8256609000 4.1662120000 -2.8625560000
1243 1 5.1682813000 3.3283063000 2.4421876000
1244 2 1.8327620000 3.6020424000 1.5007726000
1245 1 4.4862430000 2.2396497000 5.1002677000
1246 2 -2.6400000000 -5.6524612000 2.6152219000
1247 1 0.5732540300 3.0262787000 -0.5354287200
1248 2 2.0670141000 4.9976540000 -0.2572233400
1249 1 -5.0166570000 -1.2434885000 -0.4630458900
1250 1 -0.5556688300 -3.7739639000 2.4611564000
1251 1 5.1845709000 -4.3286299000 -2.1790275000
1252 1 -0.5886543300 4.2102841000 -3.4146639000
1253 1 3.5682237000 -2.9772993000 -1.7204757000
1254 2 -2.9920285000 -1.4247241000 2.5723629000
1255 2 -0.5945161400 1.4375623000 -0.9607614000
1256 1 5.1304001000 4.6863539000 -0.0773536850
1257 2 2.6664847000 -2.3072944000 -4.5521948000
1258 1 -3.9905332000 4.0734100000 1.3545938000
1259 2 1.9285028000 -2.9721363000 0.3269438800
1260 2 -4.7526820000 -3.5746598000 -4.6151335000
1261 1 4.1551343000 0.6771434400 -5.2379515000
1262 2 -3.0548044000 1.7110818000 -4.7221835000
1263 1 -2.3060967000 2.7414370000 -3.8273463000
1264 2 4.2967675000 0.4543514600 -2.8561883000
1265 1 0.3541489100 1.9611132000 -4.5003824000
1266 1 -2.9414722000 0.8593124400 5.1971396000
1267 1 1.9782637000 0.8689029800 -0.5200341200
1268 2 3.5155541000 -5.1986082000 0.6626233700
1269 1 -1.0714085000 4.9969444000 -4.2024157000
1270 1 0.5421774100 -2.6913417000 3.3143418000
1271 1 -0.2651234300 0.7711156400 -2.8753131000
1272 2 4.1523081000 1.2826927000 -0.4015985200
1273 2 -0.9862218800 -3.1246786000 3.0117998000
1274 2 -0.9060708800 -1.5472885000 0.5682598500
1275 2 -3.4895988000 -1.4301746000 3.3638361000
1276 2 3.7077960000 -1.4868566000 3.4957995000
1277 1 -4.2408115000 -2.1770257000 -2.9015875000
1278 2 -1.1757591000 -0.4033459200 -3.1179826000
1279 1 2.5959307000 0.0108313070 -0.7213188400
1280 1 2.3121754000 -3.2155113000 -4.4759266000
1281 2 5.0947972000 -4.7084912000 0.3638368900
1282 2 0.9919847500 -2.1704156000 -0.7212887500
1283 1 0.7630703700 -2.8097942000 -2.0793750000
1284 1 -3.6623890000 -1.3104520000 -0.3296423600
1285 2 2.2010631000 -0.7573645600 -0.2660186900
1286 1 1.1665649000 1.3355663000 -4.9253503000
1287 1 -0.2298328400 -2.9905741000 -4.4178151000
1288 2 0.2512441600 -1.6858235000 -3.4302892000
1289 1 1.3082690000 1.4765471000 -1.6346726000
1290 1 -4.8454652000 -4.6447895000 -4.2230361000
1291 1 2.0522285000 -3.3504443000 -3.4527767000
1292 1 -3.7035589000 2.3811189000 4.3303155000
1293 1 3.3355845000 -1.8323628000 5.0613829000
1294 2 5.3022833000 -5.6175786000 -3.4311547000
1295 1 1.9433046000 -0.1035862500 -4.2121819000
1296 1 -5.2033781000 4.0157987000 -2.0606541000
1297 1 3.4243864000 3.8750122000 1.7133597000
1298 2 2.0528526000 0.1218041400 0.1336520700
1299 2 -1.5286576000 -2.1118792000 -3.3352130000
1300 2 -3.9659719000 -1.7785210000 4.3188854000
1301 1 3.3690039000 4.0362834000 -1.9413447000
1302 2 2.2765733000 5.7907725000 -0.7166143300
1303 2 -0.4766512000 1.0078577000 -4.8942755000
1304 1 4.3332295000 3.8644760000 4.1402675000
1305 1 4.0063100000 -1.1876241000 -1.3118675000
1306 1 -1.1576230000 2.4101263000 -0.8815399400
1307 2 5.1955895000 -5.8947976000 -1.5834125000
1308 1 1.4975402000 0.8494017700 -2.4369080000
1309 2 -1.8331347000 3.3476236000 0.3309597800
1310 1 2.6126245000 -0.2276359800 4.1822423000
1311 1 2.3587650000 0.7295171100 2.4695538000
1312 2 -4.6554787000 3.6300097000 2.9377804000
1313 1 -1.2450349000 1.9171348000 3.2612702000
1314 2 3.7480257000 1.3239212000 1.0317461000
1315 1 4.4182731000 -4.5135055000 4.7188641000
1316 2 -4.3186098000 -5.7349403000 -0.7991060200
1317 2 4.9571029000 -4.0394973000 -1.0918435000
1318 2 2.7510567000 -5.1480038000 0.2062791600
1319 1 1.7442900000 -5.3921183000 2.4288746000
1320 2 2.9466811000 2.6927757000 4.2240782000
1321 1 2.8667043000 -5.2483898000 -0.7792927400
1322 1 0.3849815500 5.7862142000 4.6354031000
1323 2 -1.6851935000 2.7758919000 -2.5717842000
1324 1 3.8285350000 3.4903271000 -2.7433947000
1325 1 5.3154089000 -1.9532506000 -4.7675657000
1326 1 -4.0543007000 5.8963606000 0.0765548070
1327 2 2.4426384000 3.9084238000 2.1164515000
1328 1 -0.7487745900 1.8203882000 -0.0554665000
1329 2 1.8323190000 -3.1117153000 -1.5788279000
1330 2 -3.5154613000 2.4648735000 3.3349962000
1331 1 0.1604510900 5.0886658000 0.3499210100
1332 1 0.2836188500 -4.4975397000 -0.4323021900
1333 2 -0.0859267130 0.3146375500 -2.0051355000
1334 1 4.2846752000 2.2249524000 -3.6842311000
1335 2 -1.5244190000 -4.6623149000 3.6678351000
1336 2 1.3267037000 -4.6919314000 1.8560177000
1337 1 -0.4820454000 -1.1600771000 1.5044195000
1338 2 3.1122444000 3.6293161000 -0.7643631000
1339 2 1.6324297000 0.2486106300 0.9454136500
1340 2 1.3917748000 5.9165280000 -3.2424805000
1341 1 0.6366778600 5.8727947000 -3.8715730000
1342 2 2.0256296000 -4.5652398000 -3.9551501000
1343 2 -4.0219871000 -3.5025804000 1.5729911000
1344 2 3.5686139000 5.0993874000 0.2213388700
1345 1 4.8369238000 -3.6665907000 0.9911230500
1346 2 0.1285945700 -5.3934610000 3.9093295000
1347 2 -4.0435931000 -3.9463035000 -4.2241679000
1348 1 3.4695908000 2.5532683000 5.0209715000
1349 2 2.8780385000 -2.9599220000 1.7775245000
1350 1 -0.7906330400 4.1140652000 -0.3819300800
1351 1 -0.6689410900 1.0091908000 3.4361835000
1352 1 4.1660728000 -4.4160810000 0.5879412000
1353 2 -1.8082606000 2.4095116000 -1.6992545000
1354 1 -3.2081534000 5.5287839000 2.0373977000
1355 1 -0.6322014100 5.5317841000 -2.4333649000
1356 1 1.8283549000 -0.5242702300 -3.2064879000
1357 1 3.4725179000 -2.0707121000 0.4896284800
1358 1 -3.9053272000 0.9304967700 1.1628232000
1359 1 -2.1726133000 3.1454367000 3.8184931000
1360 1 3.9060144000 2.2246747000 1.3091121000
1361 2 -5.0914338000 -2.1185387000 4.6314000000
1362 2 -3.8100504000 4.1738646000 -3.4650289000
1363 1 -0.1432463100 -2.6891612000 4.1765610000
1364 1 -2.1270376000 5.2359013000 4.2812362000
1365 1 3.6925977000 -3.2592460000 -4.3271170000
1366 1 -3.1777745000 -0.1561202000 -0.4386248200
1367 2 -0.0582570080 4.2064695000 -1.1400861000
1368 2 4.0395948000 2.6105285000 0.1462683000
1369 1 4.8173267000 -4.9688236000 -1.4243372000
1370 1 0.6534937200 1.9996399000 4.8099561000
1371 2 0.7032569500 0.1652151900 -5.2304625000
1372 2 -0.0390575210 -1.9181808000 2.7982833000
1373 1 4.3733528000 -3.7062815000 -4.9892726000
1374 1 -1.3121063000 3.9078503000 2.2299438000
1375 1 -4.1337349000 -3.3855948000 3.4840290000
1376 2 2.2523214000 1.8157037000 -3.9479469000
1377 2 2.7670427000 5.1412304000 1.1829655000
1378 1 -1.2016198000 2.6910135000 3.9722066000
1379 2 3.6081287000 -3.7862451000 2.1101365000
1380 2 5.1561319000 -3.0246879000 2.5110321000
1381 2 4.9879721000 2.3418800000 0.1589654100
1382 2 -1.1888506000 2.5011335000 -3.2471375000
1383 2 -4.9996376000 -2.9278270000 3.6767832000
1384 1 -0.3931364200 4.9766285000 3.2138311000
1385 2 -1.1315616000 -3.8738908000 4.9377777000
1386 1 -3.3650421000 -2.3610926000 -1.4484902000
1387 1 1.4410715000 -3.7457443000 -4.2546007000
1388 2 -2.7110334000 -2.9722683000 2.8823102000
1389 2 -1.7837551000 0.2695107200 -3.0900357000
1390 1 1.3689255000 2.4856858000 2.7447440000
1391 1 -3.5487342000 -0.7138864600 -2.3078041000
1392 2 -0.3473824900 0.1100013500 3.6174282000
1393 2 -3.7746469000 -2.7558230000 -2.2493625000
1394 1 3.6413179000 -0.9573533000 4.4363591000
1395 1 -1.2771888000 4.9263234000 2.6155360000
1396 1 -0.7281430400 1.9434445000 -4.6438154000
1397 1 4.4642550000 -5.5360196000 0.2722287600
1398 1 4.2370897000 5.7143837000 2.0872703000
1399 1 -0.2688839400 -1.2562857000 -4.2862379000
1400 2 -4.9942839000 -4.4885532000 -1.3276476000
1401 2 1.7050652000 -2.4043948000 -4.6607838000
1402 2 -4.9106902000 -3.8039417000 -0.6775990400
1403 2 5.2196809000 4.4986266000 0.8905827800
1404 2 5.3379718000 -0.8052197700 2.2448061000
1405 2 -2.3267355000 -4.9602560000 3.9746583000
1406 2 -3.7197168000 -2.1379709000 -3.7353155000
1407 2 0.4567434500 -1.3307591000 -4.9799222000
1408 1 -2.7321014000 -5.2540904000 -3.9115041000
1409 2 4.9356646000 0.3697432100 1.1408594000
1410 2 1.5796705000 5.1277358000 -3.7143504000
1411 1 -2.6087921000 2.8585905000 4.7466531000
1412 2 5.1354022000 0.9776056900 -2.9258188000
1413 1 1.8460080000 -1.3934939000 3.0119862000
1414 2 -2.5823377000 0.6332989700 -0.1903540100
1415 2 2.6732555000 0.4837352200 -4.5469954000
1416 1 0.2789804500 -4.4740421000 -3.2030756000
1417 2 0.6914678800 -4.2936013000 0.4293129200
1418 2 -4.7385880000 -3.1690273000 2.0203653000
1419 1 3.8118739000 -5.4693007000 -2.8888487000
1420 2 -0.6465937200 -1.6113266000 3.4474861000
1421 2 2.2751396000 2.6112243000 -2.5780593000
1422 2 -3.3569217000 2.4997037000 -5.1836600000
1423 1 -3.0621097000 0.3075867800 1.3426374000
1424 2 4.4670452000 5.6280998000 -1.1060849000
1425 2 -3.5266018000 -5.3055628000 -0.6789957900
1426 1 4.4897388000 2.7360726000 3.0671388000
1427 1 3.2860496000 -1.8935258000 -1.6333310000
1428 2 -0.1782117800 -1.1327141000 4.0600410000
1429 2 3.5812702000 1.9936594000 -0.3085059100
1430 1 -3.0024207000 -1.9089834000 4.0517115000
1431 2 5.2295735000 0.9086114300 2.8539322000
1432 2 -2.3598139000 2.5262626000 0.4498761400
1433 2 -2.0779455000 4.2617212000 4.1691710000
1434 1 3.1890207000 -5.2286092000 -1.8796134000
1435 2 -0.5570378400 -0.4311124300 -3.7937632000
1436 1 -0.9639923100 -5.8303259000 -3.5597913000
1437 1 1.8673588000 5.0659645000 -2.7410260000
1438 2 0.7742299600 3.2081341000 4.0730468000
1439 1 3.8109548000 -0.1677308700 2.2119584000
1440 1 3.4412200000 2.4987033000 -2.9152730000
1441 2 1.3644471000 -1.0616713000 -0.1871538800
1442 1 2.1486135000 2.2538397000 4.0336321000
1443 2 -4.6119448000 3.2902763000 2.0313840000
1444 2 -4.0489936000 -3.5380157000 2.4830133000
1445 2 -4.6963621000 -2.8782231000 -2.2866887000
1446 1 -0.4572709500 -1.5943790000 -1.8138624000
1447 2 2.6619858000 -3.1400480000 -0.1840484900
1448 2 -4.9307197000 1.6570395000 -2.5703522000
1449 2 -0.9497917400 0.4380603000 -3.4661673000
1450 2 -3.1476064000 3.1460038000 3.9370474000
1451 1 3.8709569000 2.6070759000 4.0006139000
1452 2 -4.0946050000 -4.5398405000 -3.5273079000
1453 2 2.9949394000 -3.3554125000 2.5988593000
1454 2 1.6531521000 -2.6436605000 -2.3983212000
1455 2 -2.5003565000 -5.8529751000 -0.9418211100
1456 2 4.5058747000 -0.2247282500 -5.0619397000
1457 2 -5.0008722000 2.7251941000 -0.1863340400
1458 1 -1.0611590000 -2.2523049000 2.4853324000
1459 1 -2.2320772000 -0.7984232300 2.5367507000
1460 2 5.3418410000 -2.1807211000 0.8004573700
1461 2 -2.8742796000 3.9725221000 2.4521046000
1462 1 -3.7354918000 -3.6048588000 4.4523163000
1463 2 -4.6115449000 -4.0434061000 1.9651066000
1464 1 -0.1440130700 -0.1438361100 1.2507814000
1465 1 4.4506068000 -2.1620426000 1.7626087000
1466 2 -2.6753947000 4.1582680000 -2.2895456000
1467 1 -3.1569428000 -3.0068208000 0.3401164200
1468 1 -4.5490839000 0.1323484100 0.7428797200
1469 2 -2.6895348000 -3.7120518000 -4.9153994000
1470 2 1.8872670000 2.6481714000 1.3743420000
1471 1 0.2603130600 4.0981511000 -0.2375090200
1472 1 0.7994211700 -4.3916664000 -2.2704447000
1473 2 -1.1658071000 2.7154266000 -4.1172896000
1474 2 5.3489484000 -0.3047202100 -0.5862679200
1475 1 -3.4561070000 4.9108046000 -2.7355016000
1476 1 3.0752913000 1.8118497000 3.8074918000
1477 1 4.7607620000 2.3086328000 2.0474504000
1478 2 3.9347986000 4.2001354000 -3.4576895000
1479 1 1.8556108000 -3.5988059000 -2.4361932000
1480 2 -3.3656925000 -3.4589561000 -2.6099414000
1481 2 2.3524714000 4.8099757000 -5.1223383000
1482 2 2.3605124000 -0.8174775100 1.7476752000
1483 2 3.2777941000 4.7545459000 -3.7130223000
1484 1 3.4256975000 5.8726761000 2.7906194000
1485 1 -0.5311619200 -1.0540424000 -0.1980644400
1486 1 -1.1624234000 -2.9645378000 -3.8187093000
1487 1 -3.8084011000 -5.0162437000 -2.4631522000
1488 2 -3.1304142000 -4.2969721000 -2.6480513000
1489 1 4.4061365000 -0.5477191600 -3.0414109000
1490 1 -2.9166302000 4.9941807000 -1.7846780000
1491 1 4.1208392000 -2.2528011000 -1.0422335000
1492 1 -5.0406526000 5.3502741000 3.0990726000
1493 1 -1.9524946000 4.5422079000 -1.6552569000
1494 2 4.4539651000 -2.4914540000 2.6988467000
1495 2 -2.3133608000 -2.4171640000 3.5328051000
1496 2 -2.3928134000 4.5333683000 4.9730980000
1497 1 -2.9107985000 0.7343038600 -2.0685784000
1498 2 3.7375000000 -1.6736218000 1.3529527000
1499 2 3.9200663000 1.8014132000 -1.1038091000
1500 2 -0.3935310700 -0.3248705700 4.3723559000
1501 1 3.9249306000 -3.2716445000 2.9372571000
1502 2 -4.4779597000 0.5560052000 -4.0753647000
1503 1 -0.1988171600 5.2151557000 -3.4531273000
1504 1 -3.7813523000 -0.7003387700 -5.1967391000
1505 2 5.0326936000 -1.8479088000 0.0139185170
1506 1 0.5927887800 2.6390696000 -2.6521078000
1507 2 -1.2019499000 0.2600985700 -4.8978825000
1508 2 -3.4230054000 -2.7225522000 -3.1082405000
1509 2 0.1513481200 -4.3052099000 2.8706923000
1510 2 -5.0865619000 4.6708819000 -4.4586376000
1511 1 4.5866675000 5.6032074000 -2.7898509000
1512 1 4.8145827000 3.8743593000 -2.9628978000
1513 1 0.6360312300 -3.4270133000 4.2171284000
1514 1 4.2579687000 -5.7528021000 -1.9243821000
1515 2 3.7164986000 5.4450650000 -3.2763001000
1516 2 -0.5512311100 2.0982342000 -1.5982936000
1517 2 4.8163242000 1.4681949000 -1.1712580000
1518 2 3.1795318000 -4.9876465000 3.0638401000
1519 1 -1.1590726000 -0.3092951500 1.5921813000
1520 1 0.0520620900 -4.4145684000 1.8646363000
1521 2 -4.7035277000 -0.8026386600 1.0717804000
1522 2 3.9721154000 2.5805642000 -4.5729288000
1523 2 3.0259778000 5.4151914000 -5.0995344000
1524 2 -3.8423646000 -1.9867160000 1.5222186000
1525 1 -4.9926364000 -1.5794772000 -1.4690705000
1526 2 -0.0664283950 -5.6136160000 -5.0294353000
1527 2 -5.1099001000 3.5680727000 -0.4669844000
1528 2 0.5342786400 -1.8964675000 -1.7644323000
1529 1 3.0503866000 3.0085823000 -2.0204046000
1530 2 -3.8899594000 0.7976431200 4.7864013000
1531 1 0.8118834100 -1.2804398000 3.9172443000
1532 2 4.7438115000 3.8579744000 -0.4035194500
1533 2 1.3456801000 -1.9067796000 -3.9896646000
1534 1 3.6392605000 0.3871203900 -0.3557523200
1535 2 4.3179207000 2.2277179000 -2.4952971000
1536 1 -0.0360622820 -5.5961363000 -3.1714772000
1537 2 4.3896893000 3.9724364000 2.4489269000
1538 1 0.2959807300 2.7641223000 2.4574529000
1539 1 2.6153009000 1.7076502000 -3.0306708000
1540 2 1.2998787000 5.5299519000 2.2489145000
1541 1 4.1874149000 3.3148296000 -3.7705309000
1542 2 -1.8666962000 5.1712058000 0.6400319800
1543 2 1.4928069000 0.3896325100 1.8809083000
1544 1 0.1322819100 1.8004953000 2.0420988000
1545 1 3.5012483000 -0.1254739000 -2.7854405000
1546 1 0.7508529400 -0.2016687600 2.2694371000
1547 1 -4.3842381000 -5.9216117000 -1.7555999000
1548 2 4.5629060000 4.0424841000 0.4661147400
1549 1 -3.1914334000 3.1358763000 -0.8552696400
1550 2 0.7775360700 3.8346473000 -1.0517583000
1551 2 3.4406742000 -3.9380530000 -2.0621366000
1552 2 -3.3098107000 1.4186718000 1.8770322000
1553 2 2.2838155000 -4.3037971000 -3.1108211000
1554 2 -2.3638395000 -1.7809276000 -2.6150532000
1555 2 3.9583524000 4.0625625000 -4.3663122000
1556 2 0.1429199400 3.4558578000 3.5047944000
1557 1 -2.8690002000 5.7187900000 -3.2851418000
1558 1 1.9876936000 -2.7616420000 4.2140591000
1559 1 1.9521321000 4.2125507000 -4.4513540000
1560 1 -4.8089232000 -4.1328046000 0.3300009800
1561 1 1.1286738000 2.0166322000 1.8069433000
1562 2 1.5306396000 3.7444480000 4.2898704000
1563 2 1.5923280000 -2.3304799000 3.3624243000
1564 1 1.8307158000 0.9540113900 -4.2217883000
1565 2 2.2045626000 2.2389632000 0.5107549100
1566 2 0.1700130600 2.7159725000 -3.5089260000
1567 1 1.1085328000 -4.5615319000 -1.1947468000
1568 2 0.9080745100 3.3896994000 2.9693032000
1569 2 0.5937280800 4.1666597000 0.6818443900
1570 2 3.7844150000 5.1647626000 -0.6753890400
1571 1 4.6306245000 -3.4768331000 4.4752451000
1572 2 3.1833294000 0.8723617700 -5.1848774000
1573 1 -4.5002865000 5.4323200000 -4.1234699000
1574 2 3.7975973000 -3.9972072000 -0.2755223900
1575 1 -2.1504266000 1.4530872000 -4.9406853000
1576 2 -1.8358737000 -5.3444152000 -1.2360178000
1577 1 0.2698099100 -2.9526412000 5.1061501000
1578 2 2.0483005000 4.1876011000 0.1738864100
1579 1 -4.5584298000 4.4896219000 3.5721152000
1580 2 1.6225295000 1.7325642000 -0.1146164200
1581 2 2.7801176000 0.6901800400 0.0368730590
1582 1 -3.6162342000 3.0593505000 1.1908340000
1583 1 1.1253051000 3.0789097000 1.8949629000
1584 1 3.9873739000 -2.7936830000 3.9825493000
1585 1 3.5401446000 -0.8055225800 -3.8680994000
1586 2 0.9433783800 -5.3515703000 4.2461183000
1587 2 -5.1420857000 3.0391604000 -1.9054533000
1588 1 0.4617088700 -0.7027300000 -0.5007785400
1589 1 -1.2404557000 -1.1745221000 -3.7533541000
1590 2 -5.2590104000 -4.4890072000 2.3844880000
1591 2 0.6514862900 -1.5971064000 -0.0642600720
1592 1 3.9549736000 -2.7457180000 5.0717323000
1593 1 4.4896104000 4.0411528000 1.4362512000
1594 2 0.3630920100 -1.0367582000 -1.5592383000
1595 2 4.4752011000 0.4306579600 2.6279136000
1596 1 -4.2265699000 -4.4580524000 2.7695550000
1597 2 0.9138747200 3.9586198000 1.4888752000
1598 1 2.8718259000 2.3552206000 -4.5578288000
1599 1 -2.8119741000 4.3033949000 -3.2598134000
1600 1 0.1845701200 3.6023741000 -3.9863896000
1601 1 -0.2048053800 -0.2807594800 -2.8584431000
1602 1 5.3191834000 5.5555007000 0.4916371800
1603 2 -3.0449645000 -2.1677198000 3.0654994000
1604 2 2.2270810000 -2.3503193000 1.6806060000
1605 1 -5.1547379000 2.0740608000 -1.6322503000
1606 1 2.7256564000 -1.2412485000 3.9916287000
1607 1 -4.1075173000 0.8156822900 -1.5038079000
1608 2 0.7822826000 0.1753435200 1.3493378000
1609 1 2.5772818000 4.1183717000 1.0824519000
1610 1 -0.3476457400 -2.0823932000 -5.0020123000
1611 1 -2.4574521000 -5.6880795000 4.6050016000
1612 1 -0.2713754800 5.0260319000 -0.6503252600
1613 1 -0.0971944030 4.5870202000 -4.3636504000
1614 1 -3.5519347000 -5.9025188000 -4.1387830000
1615 1 1.9054144000 -3.2040638000 1.2585701000
1616 1 0.0001763909 4.6110746000 -2.5688052000
1617 1 3.6514537000 -1.0287400000 0.6205664500
1618 1 -3.2851389000 -1.6413452000 5.1003622000
1619 2 3.7778001000 -0.0749417440 -4.5287023000
1620 1 -3.4386623000 -0.9507823600 4.2356620000
1621 1 4.5974310000 2.4473110000 -1.5227120000
1622 2 -2.1732616000 -2.7736785000 0.5500189300
1623 2 2.5669083000 -2.2315780000 -0.0056756412
1624 2 0.6707617800 3.2132298000 -4.7325334000
1625 1 -3.3563472000 5.7348007000 3.1039099000
1626 2 0.0479902520 3.5721582000 4.4255195000
1627 1 -3.1256734000 -0.3575087300 2.2011339000
1628 1 -4.0312264000 -0.3443852600 -4.1053568000
1629 2 -0.5077807700 2.1940264000 -3.7393598000
1630 1 3.6128888000 -4.6586619000 3.9681238000
1631 1 3.9014464000 -5.4106769000 -0.9964102400
1632 1 3.0232961000 2.8051972000 -0.1610452700
1633 1 -2.1875903000 2.4539932000 2.9465172000
1634 2 -4.1837337000 -3.1965890000 -2.9536398000
1635 1 -1.6416491000 0.6416892700 0.1764692300
1636 2 4.2089599000 -3.9011286000 -2.8056240000
1637 1 -2.6242645000 -1.0623615000 -1.9880531000
1638 2 -0.2838207300 5.7537467000 -4.2713316000
1639 2 -0.7263024000 5.7943604000 2.7584570000
1640 2 -1.7242142000 3.6981503000 1.1647766000
1641 1 -3.1608213000 2.5868553000 -3.1529734000
1642 1 2.1196102000 -5.1675150000 -5.0077190000
1643 1 -0.0837397830 -5.4844273000 1.9491567000
1644 1 -3.7764284000 -0.2083158700 -1.3446972000
1645 2 2.7756099000 4.6957453000 0.3082868100
1646 2 -2.7019902000 5.5830794000 -4.4625451000
1647 1 -2.7569780000 2.1738985000 3.8774235000
1648 1 0.6650414800 0.8860591700 2.0787220000
1649 2 -0.1519111900 2.5368908000 -5.2142217000
1650 1 1.2886165000 -4.0911553000 -3.2237598000
1651 1 -3.4175699000 -1.7634612000 -2.3228773000
1652 1 0.7980882300 5.1842889000 -3.0180861000
1653 2 1.6136224000 -3.6351808000 4.3424615000
1654 2 -2.7245019000 -4.6145685000 -4.6511104000
1655 1 2.1734460000 4.0429642000 -2.4970435000
1656 1 -4.4601896000 -5.4598021000 -3.6736362000
1657 2 0.6396861400 1.1224680000 -3.1131417000
1658 2 -2.2873391000 -4.2940814000 3.3598068000
1659 1 3.9402447000 1.8376042000 3.1944862000
1660 2 -0.7663401100 -3.0584513000 -1.3607128000
1661 2 -1.6371622000 -0.1092528100 -1.3952049000
1662 1 1.5805830000 1.4547691000 -3.2958054000
1663 2 -0.5823832300 -5.8608826000 3.6123405000
1664 1 4.2397342000 -3.3608704000 -0.8862315100
1665 1 3.4663792000 0.4319211500 0.7302500400
1666 1 0.1260002400 -2.8409543000 -0.8541912600
1667 2 -0.1451267600 4.2858347000 3.9101019000
1668 2 -1.4094768000 5.8854785000 0.3221032000
1669 1 -1.8527163000 0.3256237500 2.2336254000
1670 1 -4.4133982000 3.4438923000 -3.7832122000
1671 2 -0.8940166800 -0.9743080000 -2.4897287000
1672 1 5.2856044000 -0.9691567200 -2.3635400000
1673 2 3.7754925000 2.2827140000 2.3287000000
1674 2 5.3030306000 5.6714827000 2.2062565000
1675 1 -2.8626748000 -0.2398827600 4.7965340000
1676 2 -4.5387050000 -3.5243263000 4.9753791000
1677 2 2.1337199000 0.8931087100 1.4679598000
1678 2 -1.6054146000 -2.2162443000 5.0944506000
1679 2 -1.5880985000 2.2750768000 -4.9955792000
1680 2 -4.1446077000 2.8709898000 2.7678781000
1681 2 5.0260327000 0.3559375400 4.7195446000
1682 1 1.2368966000 -0.5965977000 -4.9023677000
1683 2 4.3830117000 -2.0666473000 3.4846160000
1684 1 -0.3664362800 3.2556670000 -0.9794724800
1685 2 0.8862131600 -1.7794451000 3.0756471000
1686 2 -4.6938695000 -0.6922216200 -1.2049530000
1687 2 4.9955491000 0.0169836870 0.2923468600
1688 1 5.2585095000 -2.7961414000 1.5200461000
1689 1 1.5308903000 0.1748513300 4.4781605000
1690 1 3.2991987000 -5.6851126000 3.7977738000
1691 1 1.9554909000 -4.5436182000 0.2541807400
1692 2 -2.3410567000 -1.7490357000 -5.0566921000
1693 1 -1.7994532000 -2.8585502000 4.2861312000
1694 2 -4.4809900000 -5.6450960000 -2.6975832000
1695 2 1.5461929000 2.0742247000 -0.9398289300
1696 2 1.2908026000 -2.8494467000 2.7405442000
1697 1 -3.4129462000 -4.3300582000 5.1622769000
1698 2 -4.8707097000 -3.5997836000 1.2045080000
1699 1 -3.0073020000 3.1586969000 2.9581635000
1700 2 -1.5106005000 -3.2642763000 1.0880352000
1701 1 -3.1157917000 -5.0672357000 3.3475251000
1702 1 2.8131994000 -0.8377783900 -3.0627167000
1703 2 -3.5742044000 -4.9362319000 1.1688949000
1704 2 0.2651192900 5.6393841000 3.5741452000
1705 2 3.5257435000 5.5360212000 4.5647725000
1706 2 4.5795729000 4.7697444000 -3.2637220000
1707 1 -1.7705765000 -0.5458441400 -2.3228201000
1708 1 -4.3379372000 -5.5485482000 -4.7306089000
1709 2 -3.7773609000 -4.3699953000 0.3881665800
1710 2 2.2307597000 0.7395932300 -3.1464801000
1711 2 -0.3906378700 1.9054607000 1.2115318000
1712 2 3.2986039000 2.0865967000 0.5372524800
1713 2 0.8108488800 2.0122233000 -0.4564086300
1714 2 -4.6048119000 3.2338766000 5.1596622000
1715 1 4.8152429000 0.1799959500 3.5253023000
1716 1 -1.4866347000 -3.2828896000 -2.0623869000
1717 1 1.4696968000 2.6943535000 -0.0930946950
1718 1 -0.1557828100 3.6184253000 -5.0654325000
1719 1 -1.7304945000 1.9177406000 -4.0845303000
1720 2 -0.9248748000 -4.1242113000 4.0643912000
1721 1 -1.8233830000 -4.1864356000 -4.8651469000
1722 1 -2.3140527000 -3.0600225000 -1.4715103000
1723 1 0.3551513500 2.6290975000 1.3372737000
1724 1 2.4258106000 3.9984358000 -1.4485771000
1725 2 4.8848685000 -1.0736468000 -4.8221162000
1726 1 -4.6687801000 0.7407149600 2.3286560000
1727 1 4.5395121000 -1.5705229000 0.8164047300
1728 1 1.0110040000 4.9647856000 1.0917512000
